Al4 V4 Cr4 Fe4
1.0
5.817151 0.000000 0.000000
-0.000000 5.817151 0.000000
0.000000 0.000000 5.817151
Al V Cr Fe
4 4 4 4
direct
0.000000 0.000000 0.000000 Al
0.000000 0.500000 0.500000 Al
0.500000 0.000000 0.500000 Al
0.500000 0.500000 0.000000 Al
0.000000 0.000000 0.500000 V
0.000000 0.500000 0.000000 V
0.500000 0.000000 0.000000 V
0.500000 0.500000 0.500000 V
0.250000 0.250000 0.750000 Cr
0.250000 0.750000 0.250000 Cr
0.750000 0.250000 0.250000 Cr
0.750000 0.750000 0.750000 Cr
0.750000 0.250000 0.750000 Fe
0.750000 0.750000 0.250000 Fe
0.250000 0.250000 0.250000 Fe
0.250000 0.750000 0.750000 Fe
