Nb4 Al4 Co4 Ir4
1.0
6.152590 0.000000 0.000000
-0.000000 6.152590 0.000000
0.000000 0.000000 6.152590
Nb Al Co Ir
4 4 4 4
direct
0.500000 0.000000 0.000000 Nb
0.500000 0.500000 0.500000 Nb
0.000000 0.000000 0.500000 Nb
0.000000 0.500000 0.000000 Nb
0.000000 0.000000 0.000000 Al
0.000000 0.500000 0.500000 Al
0.500000 0.000000 0.500000 Al
0.500000 0.500000 0.000000 Al
0.250000 0.250000 0.250000 Co
0.250000 0.750000 0.750000 Co
0.750000 0.250000 0.750000 Co
0.750000 0.750000 0.250000 Co
0.250000 0.250000 0.750000 Ir
0.250000 0.750000 0.250000 Ir
0.750000 0.250000 0.250000 Ir
0.750000 0.750000 0.750000 Ir
