Mg4 Co4 Ni4 Ge4
1.0
5.876240 0.000000 0.000000
-0.000000 5.876240 0.000000
0.000000 0.000000 5.876240
Mg Co Ni Ge
4 4 4 4
direct
0.500000 0.000000 0.000000 Mg
0.500000 0.500000 0.500000 Mg
0.000000 0.000000 0.500000 Mg
0.000000 0.500000 0.000000 Mg
0.250000 0.250000 0.750000 Co
0.250000 0.750000 0.250000 Co
0.750000 0.250000 0.250000 Co
0.750000 0.750000 0.750000 Co
0.250000 0.250000 0.250000 Ni
0.250000 0.750000 0.750000 Ni
0.750000 0.250000 0.750000 Ni
0.750000 0.750000 0.250000 Ni
0.000000 0.000000 0.000000 Ge
0.000000 0.500000 0.500000 Ge
0.500000 0.000000 0.500000 Ge
0.500000 0.500000 0.000000 Ge
