Ta4 Fe4 Si4 Ru4
1.0
6.008146 0.000000 0.000000
-0.000000 6.008146 0.000000
0.000000 0.000000 6.008146
Ta Fe Si Ru
4 4 4 4
direct
0.500000 0.500000 0.500000 Ta
0.500000 0.000000 0.000000 Ta
0.000000 0.500000 0.000000 Ta
0.000000 0.000000 0.500000 Ta
0.750000 0.250000 0.750000 Fe
0.750000 0.750000 0.250000 Fe
0.250000 0.250000 0.250000 Fe
0.250000 0.750000 0.750000 Fe
0.500000 0.000000 0.500000 Si
0.500000 0.500000 0.000000 Si
0.000000 0.000000 0.000000 Si
0.000000 0.500000 0.500000 Si
0.750000 0.250000 0.250000 Ru
0.750000 0.750000 0.750000 Ru
0.250000 0.250000 0.750000 Ru
0.250000 0.750000 0.250000 Ru
