Y4 Sc4 Tl4 Cd4
1.0
7.338666 0.000000 0.000000
-0.000000 7.338666 0.000000
0.000000 0.000000 7.338666
Y Sc Tl Cd
4 4 4 4
direct
0.250000 0.250000 0.250000 Y
0.250000 0.750000 0.750000 Y
0.750000 0.250000 0.750000 Y
0.750000 0.750000 0.250000 Y
0.250000 0.250000 0.750000 Sc
0.250000 0.750000 0.250000 Sc
0.750000 0.250000 0.250000 Sc
0.750000 0.750000 0.750000 Sc
0.500000 0.000000 0.000000 Tl
0.500000 0.500000 0.500000 Tl
0.000000 0.000000 0.500000 Tl
0.000000 0.500000 0.000000 Tl
0.000000 0.000000 0.000000 Cd
0.000000 0.500000 0.500000 Cd
0.500000 0.000000 0.500000 Cd
0.500000 0.500000 0.000000 Cd
