Ti4 Fe4 Si4 Rh4
1.0
5.899936 0.000000 0.000000
-0.000000 5.899936 0.000000
0.000000 0.000000 5.899936
Ti Fe Si Rh
4 4 4 4
direct
0.750000 0.250000 0.250000 Ti
0.750000 0.750000 0.750000 Ti
0.250000 0.250000 0.750000 Ti
0.250000 0.750000 0.250000 Ti
0.500000 0.500000 0.500000 Fe
0.500000 0.000000 0.000000 Fe
0.000000 0.500000 0.000000 Fe
0.000000 0.000000 0.500000 Fe
0.250000 0.250000 0.250000 Si
0.250000 0.750000 0.750000 Si
0.750000 0.250000 0.750000 Si
0.750000 0.750000 0.250000 Si
0.500000 0.500000 0.000000 Rh
0.500000 0.000000 0.500000 Rh
0.000000 0.500000 0.500000 Rh
0.000000 0.000000 0.000000 Rh
