Li4 Mn4 Cd4 Sn4
1.0
6.608600 0.000000 0.000000
-0.000000 6.608600 0.000000
0.000000 0.000000 6.608600
Li Mn Cd Sn
4 4 4 4
direct
0.250000 0.250000 0.750000 Li
0.250000 0.750000 0.250000 Li
0.750000 0.250000 0.250000 Li
0.750000 0.750000 0.750000 Li
0.250000 0.250000 0.250000 Mn
0.250000 0.750000 0.750000 Mn
0.750000 0.250000 0.750000 Mn
0.750000 0.750000 0.250000 Mn
0.500000 0.000000 0.000000 Cd
0.500000 0.500000 0.500000 Cd
0.000000 0.000000 0.500000 Cd
0.000000 0.500000 0.000000 Cd
0.000000 0.000000 0.000000 Sn
0.000000 0.500000 0.500000 Sn
0.500000 0.000000 0.500000 Sn
0.500000 0.500000 0.000000 Sn
