Ta4 Al4 Co4 Ru4
1.0
6.086936 0.000000 0.000000
-0.000000 6.086936 0.000000
0.000000 0.000000 6.086936
Ta Al Co Ru
4 4 4 4
direct
0.000000 0.500000 0.000000 Ta
0.000000 0.000000 0.500000 Ta
0.500000 0.500000 0.500000 Ta
0.500000 0.000000 0.000000 Ta
0.000000 0.000000 0.000000 Al
0.000000 0.500000 0.500000 Al
0.500000 0.000000 0.500000 Al
0.500000 0.500000 0.000000 Al
0.250000 0.250000 0.250000 Co
0.250000 0.750000 0.750000 Co
0.750000 0.250000 0.750000 Co
0.750000 0.750000 0.250000 Co
0.250000 0.250000 0.750000 Ru
0.250000 0.750000 0.250000 Ru
0.750000 0.250000 0.250000 Ru
0.750000 0.750000 0.750000 Ru
