Li4 Zn4 Fe4 Ni4
1.0
5.725804 0.000000 0.000000
-0.000000 5.725804 0.000000
0.000000 0.000000 5.725804
Li Zn Fe Ni
4 4 4 4
direct
0.250000 0.750000 0.750000 Li
0.250000 0.250000 0.250000 Li
0.750000 0.750000 0.250000 Li
0.750000 0.250000 0.750000 Li
0.000000 0.000000 0.000000 Zn
0.000000 0.500000 0.500000 Zn
0.500000 0.000000 0.500000 Zn
0.500000 0.500000 0.000000 Zn
0.000000 0.000000 0.500000 Fe
0.000000 0.500000 0.000000 Fe
0.500000 0.000000 0.000000 Fe
0.500000 0.500000 0.500000 Fe
0.250000 0.250000 0.750000 Ni
0.250000 0.750000 0.250000 Ni
0.750000 0.250000 0.250000 Ni
0.750000 0.750000 0.750000 Ni
