Al4 Fe4 Ru4 W4
1.0
6.011744 0.000000 0.000000
-0.000000 6.011744 0.000000
0.000000 0.000000 6.011744
Al Fe Ru W
4 4 4 4
direct
0.000000 0.000000 0.000000 Al
0.000000 0.500000 0.500000 Al
0.500000 0.000000 0.500000 Al
0.500000 0.500000 0.000000 Al
0.250000 0.250000 0.250000 Fe
0.250000 0.750000 0.750000 Fe
0.750000 0.250000 0.750000 Fe
0.750000 0.750000 0.250000 Fe
0.250000 0.250000 0.750000 Ru
0.250000 0.750000 0.250000 Ru
0.750000 0.250000 0.250000 Ru
0.750000 0.750000 0.750000 Ru
0.000000 0.500000 0.000000 W
0.000000 0.000000 0.500000 W
0.500000 0.500000 0.500000 W
0.500000 0.000000 0.000000 W
