Mn4 Cu4 Ge4 Pt4
1.0
6.140192 0.000000 0.000000
-0.000000 6.140192 0.000000
0.000000 0.000000 6.140192
Mn Cu Ge Pt
4 4 4 4
direct
0.500000 0.500000 0.500000 Mn
0.500000 0.000000 0.000000 Mn
0.000000 0.500000 0.000000 Mn
0.000000 0.000000 0.500000 Mn
0.750000 0.250000 0.750000 Cu
0.750000 0.750000 0.250000 Cu
0.250000 0.250000 0.250000 Cu
0.250000 0.750000 0.750000 Cu
0.500000 0.000000 0.500000 Ge
0.500000 0.500000 0.000000 Ge
0.000000 0.000000 0.000000 Ge
0.000000 0.500000 0.500000 Ge
0.750000 0.250000 0.250000 Pt
0.750000 0.750000 0.750000 Pt
0.250000 0.250000 0.750000 Pt
0.250000 0.750000 0.250000 Pt
