Hf4 Mn4 Zn4 Ir4
1.0
6.301688 0.000000 0.000000
-0.000000 6.301688 0.000000
0.000000 0.000000 6.301688
Hf Mn Zn Ir
4 4 4 4
direct
0.750000 0.250000 0.250000 Hf
0.750000 0.750000 0.750000 Hf
0.250000 0.250000 0.750000 Hf
0.250000 0.750000 0.250000 Hf
0.500000 0.500000 0.500000 Mn
0.500000 0.000000 0.000000 Mn
0.000000 0.500000 0.000000 Mn
0.000000 0.000000 0.500000 Mn
0.250000 0.250000 0.250000 Zn
0.250000 0.750000 0.750000 Zn
0.750000 0.250000 0.750000 Zn
0.750000 0.750000 0.250000 Zn
0.500000 0.500000 0.000000 Ir
0.500000 0.000000 0.500000 Ir
0.000000 0.500000 0.500000 Ir
0.000000 0.000000 0.000000 Ir
