Sc4 Ga4 Co4 Cu4
1.0
6.082468 0.000000 0.000000
-0.000000 6.082468 0.000000
0.000000 0.000000 6.082468
Sc Ga Co Cu
4 4 4 4
direct
0.250000 0.250000 0.250000 Sc
0.250000 0.750000 0.750000 Sc
0.750000 0.250000 0.750000 Sc
0.750000 0.750000 0.250000 Sc
0.250000 0.250000 0.750000 Ga
0.250000 0.750000 0.250000 Ga
0.750000 0.250000 0.250000 Ga
0.750000 0.750000 0.750000 Ga
0.000000 0.000000 0.000000 Co
0.000000 0.500000 0.500000 Co
0.500000 0.000000 0.500000 Co
0.500000 0.500000 0.000000 Co
0.500000 0.000000 0.000000 Cu
0.500000 0.500000 0.500000 Cu
0.000000 0.000000 0.500000 Cu
0.000000 0.500000 0.000000 Cu
