Ti4 Mn4 Tc4 Sb4
1.0
6.221404 0.000000 0.000000
-0.000000 6.221404 0.000000
0.000000 0.000000 6.221404
Ti Mn Tc Sb
4 4 4 4
direct
0.250000 0.750000 0.250000 Ti
0.250000 0.250000 0.750000 Ti
0.750000 0.750000 0.750000 Ti
0.750000 0.250000 0.250000 Ti
0.500000 0.500000 0.500000 Mn
0.500000 0.000000 0.000000 Mn
0.000000 0.500000 0.000000 Mn
0.000000 0.000000 0.500000 Mn
0.500000 0.500000 0.000000 Tc
0.500000 0.000000 0.500000 Tc
0.000000 0.500000 0.500000 Tc
0.000000 0.000000 0.000000 Tc
0.250000 0.250000 0.250000 Sb
0.250000 0.750000 0.750000 Sb
0.750000 0.250000 0.750000 Sb
0.750000 0.750000 0.250000 Sb
