Mn4 Co4 Ge4 Ru4
1.0
5.888618 0.000000 0.000000
-0.000000 5.888618 0.000000
0.000000 0.000000 5.888618
Mn Co Ge Ru
4 4 4 4
direct
0.500000 0.500000 0.500000 Mn
0.500000 0.000000 0.000000 Mn
0.000000 0.500000 0.000000 Mn
0.000000 0.000000 0.500000 Mn
0.750000 0.250000 0.750000 Co
0.750000 0.750000 0.250000 Co
0.250000 0.250000 0.250000 Co
0.250000 0.750000 0.750000 Co
0.500000 0.000000 0.500000 Ge
0.500000 0.500000 0.000000 Ge
0.000000 0.000000 0.000000 Ge
0.000000 0.500000 0.500000 Ge
0.750000 0.250000 0.250000 Ru
0.750000 0.750000 0.750000 Ru
0.250000 0.250000 0.750000 Ru
0.250000 0.750000 0.250000 Ru
