Mg4 Co4 Sn4 Ir4
1.0
6.254090 0.000000 0.000000
-0.000000 6.254090 0.000000
0.000000 0.000000 6.254090
Mg Co Sn Ir
4 4 4 4
direct
0.250000 0.750000 0.250000 Mg
0.250000 0.250000 0.750000 Mg
0.750000 0.750000 0.750000 Mg
0.750000 0.250000 0.250000 Mg
0.500000 0.500000 0.500000 Co
0.500000 0.000000 0.000000 Co
0.000000 0.500000 0.000000 Co
0.000000 0.000000 0.500000 Co
0.250000 0.250000 0.250000 Sn
0.250000 0.750000 0.750000 Sn
0.750000 0.250000 0.750000 Sn
0.750000 0.750000 0.250000 Sn
0.500000 0.500000 0.000000 Ir
0.500000 0.000000 0.500000 Ir
0.000000 0.500000 0.500000 Ir
0.000000 0.000000 0.000000 Ir
