Mg4 Zn4 Fe4 Ir4
1.0
6.110564 0.000000 0.000000
-0.000000 6.110564 0.000000
0.000000 0.000000 6.110564
Mg Zn Fe Ir
4 4 4 4
direct
0.500000 0.500000 0.000000 Mg
0.500000 0.000000 0.500000 Mg
0.000000 0.500000 0.500000 Mg
0.000000 0.000000 0.000000 Mg
0.250000 0.250000 0.250000 Zn
0.250000 0.750000 0.750000 Zn
0.750000 0.250000 0.750000 Zn
0.750000 0.750000 0.250000 Zn
0.500000 0.500000 0.500000 Fe
0.500000 0.000000 0.000000 Fe
0.000000 0.500000 0.000000 Fe
0.000000 0.000000 0.500000 Fe
0.750000 0.250000 0.250000 Ir
0.750000 0.750000 0.750000 Ir
0.250000 0.250000 0.750000 Ir
0.250000 0.750000 0.250000 Ir
