Ti4 Zn4 Fe4 Co4
1.0
5.793248 0.000000 0.000000
-0.000000 5.793248 0.000000
0.000000 0.000000 5.793248
Ti Zn Fe Co
4 4 4 4
direct
0.500000 0.500000 0.500000 Ti
0.500000 0.000000 0.000000 Ti
0.000000 0.500000 0.000000 Ti
0.000000 0.000000 0.500000 Ti
0.500000 0.500000 0.000000 Zn
0.500000 0.000000 0.500000 Zn
0.000000 0.500000 0.500000 Zn
0.000000 0.000000 0.000000 Zn
0.250000 0.250000 0.250000 Fe
0.250000 0.750000 0.750000 Fe
0.750000 0.250000 0.750000 Fe
0.750000 0.750000 0.250000 Fe
0.750000 0.250000 0.250000 Co
0.750000 0.750000 0.750000 Co
0.250000 0.250000 0.750000 Co
0.250000 0.750000 0.250000 Co
