Ti4 Mn4 Tc4 Ge4
1.0
6.050922 0.000000 0.000000
-0.000000 6.050922 0.000000
0.000000 0.000000 6.050922
Ti Mn Tc Ge
4 4 4 4
direct
0.500000 0.000000 0.000000 Ti
0.500000 0.500000 0.500000 Ti
0.000000 0.000000 0.500000 Ti
0.000000 0.500000 0.000000 Ti
0.250000 0.250000 0.250000 Mn
0.250000 0.750000 0.750000 Mn
0.750000 0.250000 0.750000 Mn
0.750000 0.750000 0.250000 Mn
0.250000 0.250000 0.750000 Tc
0.250000 0.750000 0.250000 Tc
0.750000 0.250000 0.250000 Tc
0.750000 0.750000 0.750000 Tc
0.000000 0.000000 0.000000 Ge
0.000000 0.500000 0.500000 Ge
0.500000 0.000000 0.500000 Ge
0.500000 0.500000 0.000000 Ge
