V4 Fe4 Ge4 Ru4
1.0
5.883610 0.000000 0.000000
-0.000000 5.883610 0.000000
0.000000 0.000000 5.883610
V Fe Ge Ru
4 4 4 4
direct
0.500000 0.500000 0.500000 V
0.500000 0.000000 0.000000 V
0.000000 0.500000 0.000000 V
0.000000 0.000000 0.500000 V
0.750000 0.250000 0.750000 Fe
0.750000 0.750000 0.250000 Fe
0.250000 0.250000 0.250000 Fe
0.250000 0.750000 0.750000 Fe
0.500000 0.000000 0.500000 Ge
0.500000 0.500000 0.000000 Ge
0.000000 0.000000 0.000000 Ge
0.000000 0.500000 0.500000 Ge
0.750000 0.250000 0.250000 Ru
0.750000 0.750000 0.750000 Ru
0.250000 0.250000 0.750000 Ru
0.250000 0.750000 0.250000 Ru
