Mn4 Ga4 Co4 Os4
1.0
5.883378 0.000000 0.000000
-0.000000 5.883378 0.000000
0.000000 0.000000 5.883378
Mn Ga Co Os
4 4 4 4
direct
0.250000 0.750000 0.250000 Mn
0.250000 0.250000 0.750000 Mn
0.750000 0.750000 0.750000 Mn
0.750000 0.250000 0.250000 Mn
0.250000 0.250000 0.250000 Ga
0.250000 0.750000 0.750000 Ga
0.750000 0.250000 0.750000 Ga
0.750000 0.750000 0.250000 Ga
0.500000 0.500000 0.500000 Co
0.500000 0.000000 0.000000 Co
0.000000 0.500000 0.000000 Co
0.000000 0.000000 0.500000 Co
0.500000 0.500000 0.000000 Os
0.500000 0.000000 0.500000 Os
0.000000 0.500000 0.500000 Os
0.000000 0.000000 0.000000 Os
