Mn4 Fe4 Co4 Sn4
1.0
5.953684 0.000000 0.000000
-0.000000 5.953684 0.000000
0.000000 0.000000 5.953684
Mn Fe Co Sn
4 4 4 4
direct
0.000000 0.000000 0.500000 Mn
0.000000 0.500000 0.000000 Mn
0.500000 0.000000 0.000000 Mn
0.500000 0.500000 0.500000 Mn
0.250000 0.250000 0.750000 Fe
0.250000 0.750000 0.250000 Fe
0.750000 0.250000 0.250000 Fe
0.750000 0.750000 0.750000 Fe
0.250000 0.750000 0.750000 Co
0.250000 0.250000 0.250000 Co
0.750000 0.750000 0.250000 Co
0.750000 0.250000 0.750000 Co
0.000000 0.000000 0.000000 Sn
0.000000 0.500000 0.500000 Sn
0.500000 0.000000 0.500000 Sn
0.500000 0.500000 0.000000 Sn
