Li4 Mn4 In4 Ni4
1.0
6.088382 0.000000 0.000000
-0.000000 6.088382 0.000000
0.000000 0.000000 6.088382
Li Mn In Ni
4 4 4 4
direct
0.000000 0.000000 0.500000 Li
0.000000 0.500000 0.000000 Li
0.500000 0.000000 0.000000 Li
0.500000 0.500000 0.500000 Li
0.750000 0.250000 0.750000 Mn
0.750000 0.750000 0.250000 Mn
0.250000 0.250000 0.250000 Mn
0.250000 0.750000 0.750000 Mn
0.750000 0.250000 0.250000 In
0.750000 0.750000 0.750000 In
0.250000 0.250000 0.750000 In
0.250000 0.750000 0.250000 In
0.500000 0.000000 0.500000 Ni
0.500000 0.500000 0.000000 Ni
0.000000 0.000000 0.000000 Ni
0.000000 0.500000 0.500000 Ni
