Mn4 Ga4 Fe4 Ru4
1.0
5.866104 0.000000 0.000000
-0.000000 5.866104 0.000000
0.000000 0.000000 5.866104
Mn Ga Fe Ru
4 4 4 4
direct
0.750000 0.250000 0.250000 Mn
0.750000 0.750000 0.750000 Mn
0.250000 0.250000 0.750000 Mn
0.250000 0.750000 0.250000 Mn
0.250000 0.250000 0.250000 Ga
0.250000 0.750000 0.750000 Ga
0.750000 0.250000 0.750000 Ga
0.750000 0.750000 0.250000 Ga
0.500000 0.500000 0.500000 Fe
0.500000 0.000000 0.000000 Fe
0.000000 0.500000 0.000000 Fe
0.000000 0.000000 0.500000 Fe
0.000000 0.000000 0.000000 Ru
0.000000 0.500000 0.500000 Ru
0.500000 0.000000 0.500000 Ru
0.500000 0.500000 0.000000 Ru
