Zr4 Ga4 Co4 Pd4
1.0
6.286908 0.000000 0.000000
-0.000000 6.286908 0.000000
0.000000 0.000000 6.286908
Zr Ga Co Pd
4 4 4 4
direct
0.750000 0.250000 0.250000 Zr
0.750000 0.750000 0.750000 Zr
0.250000 0.250000 0.750000 Zr
0.250000 0.750000 0.250000 Zr
0.250000 0.250000 0.250000 Ga
0.250000 0.750000 0.750000 Ga
0.750000 0.250000 0.750000 Ga
0.750000 0.750000 0.250000 Ga
0.500000 0.500000 0.500000 Co
0.500000 0.000000 0.000000 Co
0.000000 0.500000 0.000000 Co
0.000000 0.000000 0.500000 Co
0.500000 0.500000 0.000000 Pd
0.500000 0.000000 0.500000 Pd
0.000000 0.500000 0.500000 Pd
0.000000 0.000000 0.000000 Pd
