Mn4 Al4 Cu4 Ni4
1.0
5.819136 0.000000 0.000000
-0.000000 5.819136 0.000000
0.000000 0.000000 5.819136
Mn Al Cu Ni
4 4 4 4
direct
0.250000 0.750000 0.750000 Mn
0.250000 0.250000 0.250000 Mn
0.750000 0.750000 0.250000 Mn
0.750000 0.250000 0.750000 Mn
0.250000 0.750000 0.250000 Al
0.250000 0.250000 0.750000 Al
0.750000 0.750000 0.750000 Al
0.750000 0.250000 0.250000 Al
0.500000 0.500000 0.000000 Cu
0.500000 0.000000 0.500000 Cu
0.000000 0.500000 0.500000 Cu
0.000000 0.000000 0.000000 Cu
0.500000 0.000000 0.000000 Ni
0.500000 0.500000 0.500000 Ni
0.000000 0.000000 0.500000 Ni
0.000000 0.500000 0.000000 Ni
