Li4 Mn4 Fe4 Ge4
1.0
5.715674 0.000000 0.000000
-0.000000 5.715674 0.000000
0.000000 0.000000 5.715674
Li Mn Fe Ge
4 4 4 4
direct
0.500000 0.000000 0.000000 Li
0.500000 0.500000 0.500000 Li
0.000000 0.000000 0.500000 Li
0.000000 0.500000 0.000000 Li
0.250000 0.250000 0.250000 Mn
0.250000 0.750000 0.750000 Mn
0.750000 0.250000 0.750000 Mn
0.750000 0.750000 0.250000 Mn
0.000000 0.000000 0.000000 Fe
0.000000 0.500000 0.500000 Fe
0.500000 0.000000 0.500000 Fe
0.500000 0.500000 0.000000 Fe
0.250000 0.250000 0.750000 Ge
0.250000 0.750000 0.250000 Ge
0.750000 0.250000 0.250000 Ge
0.750000 0.750000 0.750000 Ge
