Mn4 Al4 Cr4 Ir4
1.0
5.997660 0.000000 0.000000
-0.000000 5.997660 0.000000
0.000000 0.000000 5.997660
Mn Al Cr Ir
4 4 4 4
direct
0.500000 0.000000 0.000000 Mn
0.500000 0.500000 0.500000 Mn
0.000000 0.000000 0.500000 Mn
0.000000 0.500000 0.000000 Mn
0.000000 0.000000 0.000000 Al
0.000000 0.500000 0.500000 Al
0.500000 0.000000 0.500000 Al
0.500000 0.500000 0.000000 Al
0.250000 0.250000 0.250000 Cr
0.250000 0.750000 0.750000 Cr
0.750000 0.250000 0.750000 Cr
0.750000 0.750000 0.250000 Cr
0.250000 0.250000 0.750000 Ir
0.250000 0.750000 0.250000 Ir
0.750000 0.250000 0.250000 Ir
0.750000 0.750000 0.750000 Ir
