Li4 Mn4 Co4 Sb4
1.0
6.015356 0.000000 0.000000
-0.000000 6.015356 0.000000
0.000000 0.000000 6.015356
Li Mn Co Sb
4 4 4 4
direct
0.000000 0.500000 0.000000 Li
0.000000 0.000000 0.500000 Li
0.500000 0.500000 0.500000 Li
0.500000 0.000000 0.000000 Li
0.250000 0.250000 0.250000 Mn
0.250000 0.750000 0.750000 Mn
0.750000 0.250000 0.750000 Mn
0.750000 0.750000 0.250000 Mn
0.000000 0.000000 0.000000 Co
0.000000 0.500000 0.500000 Co
0.500000 0.000000 0.500000 Co
0.500000 0.500000 0.000000 Co
0.250000 0.250000 0.750000 Sb
0.250000 0.750000 0.250000 Sb
0.750000 0.250000 0.250000 Sb
0.750000 0.750000 0.750000 Sb
