Mn4 Zn4 Ni4 Pd4
1.0
5.994188 0.000000 0.000000
-0.000000 5.994188 0.000000
0.000000 0.000000 5.994188
Mn Zn Ni Pd
4 4 4 4
direct
0.750000 0.250000 0.250000 Mn
0.750000 0.750000 0.750000 Mn
0.250000 0.250000 0.750000 Mn
0.250000 0.750000 0.250000 Mn
0.250000 0.250000 0.250000 Zn
0.250000 0.750000 0.750000 Zn
0.750000 0.250000 0.750000 Zn
0.750000 0.750000 0.250000 Zn
0.500000 0.500000 0.500000 Ni
0.500000 0.000000 0.000000 Ni
0.000000 0.500000 0.000000 Ni
0.000000 0.000000 0.500000 Ni
0.500000 0.500000 0.000000 Pd
0.500000 0.000000 0.500000 Pd
0.000000 0.500000 0.500000 Pd
0.000000 0.000000 0.000000 Pd
