Ti4 Co4 Si4 Os4
1.0
5.910618 0.000000 0.000000
-0.000000 5.910618 0.000000
0.000000 0.000000 5.910618
Ti Co Si Os
4 4 4 4
direct
0.250000 0.750000 0.250000 Ti
0.250000 0.250000 0.750000 Ti
0.750000 0.750000 0.750000 Ti
0.750000 0.250000 0.250000 Ti
0.500000 0.500000 0.500000 Co
0.500000 0.000000 0.000000 Co
0.000000 0.500000 0.000000 Co
0.000000 0.000000 0.500000 Co
0.250000 0.250000 0.250000 Si
0.250000 0.750000 0.750000 Si
0.750000 0.250000 0.750000 Si
0.750000 0.750000 0.250000 Si
0.500000 0.500000 0.000000 Os
0.500000 0.000000 0.500000 Os
0.000000 0.500000 0.500000 Os
0.000000 0.000000 0.000000 Os
