Nb4 Ga4 Fe4 Tc4
1.0
6.121218 0.000000 0.000000
-0.000000 6.121218 0.000000
0.000000 0.000000 6.121218
Nb Ga Fe Tc
4 4 4 4
direct
0.250000 0.750000 0.250000 Nb
0.250000 0.250000 0.750000 Nb
0.750000 0.750000 0.750000 Nb
0.750000 0.250000 0.250000 Nb
0.250000 0.250000 0.250000 Ga
0.250000 0.750000 0.750000 Ga
0.750000 0.250000 0.750000 Ga
0.750000 0.750000 0.250000 Ga
0.500000 0.500000 0.500000 Fe
0.500000 0.000000 0.000000 Fe
0.000000 0.500000 0.000000 Fe
0.000000 0.000000 0.500000 Fe
0.500000 0.500000 0.000000 Tc
0.500000 0.000000 0.500000 Tc
0.000000 0.500000 0.500000 Tc
0.000000 0.000000 0.000000 Tc
