Li4 Mn4 Si4 Ru4
1.0
5.786888 0.000000 0.000000
-0.000000 5.786888 0.000000
0.000000 0.000000 5.786888
Li Mn Si Ru
4 4 4 4
direct
0.750000 0.250000 0.250000 Li
0.750000 0.750000 0.750000 Li
0.250000 0.250000 0.750000 Li
0.250000 0.750000 0.250000 Li
0.500000 0.500000 0.500000 Mn
0.500000 0.000000 0.000000 Mn
0.000000 0.500000 0.000000 Mn
0.000000 0.000000 0.500000 Mn
0.250000 0.250000 0.250000 Si
0.250000 0.750000 0.750000 Si
0.750000 0.250000 0.750000 Si
0.750000 0.750000 0.250000 Si
0.500000 0.500000 0.000000 Ru
0.500000 0.000000 0.500000 Ru
0.000000 0.500000 0.500000 Ru
0.000000 0.000000 0.000000 Ru
