Ti4 Fe4 Tc4 Ge4
1.0
5.994266 0.000000 0.000000
-0.000000 5.994266 0.000000
0.000000 0.000000 5.994266
Ti Fe Tc Ge
4 4 4 4
direct
0.500000 0.500000 0.500000 Ti
0.500000 0.000000 0.000000 Ti
0.000000 0.500000 0.000000 Ti
0.000000 0.000000 0.500000 Ti
0.750000 0.250000 0.750000 Fe
0.750000 0.750000 0.250000 Fe
0.250000 0.250000 0.250000 Fe
0.250000 0.750000 0.750000 Fe
0.750000 0.250000 0.250000 Tc
0.750000 0.750000 0.750000 Tc
0.250000 0.250000 0.750000 Tc
0.250000 0.750000 0.250000 Tc
0.500000 0.000000 0.500000 Ge
0.500000 0.500000 0.000000 Ge
0.000000 0.000000 0.000000 Ge
0.000000 0.500000 0.500000 Ge
