Cr4 Co4 Ge4 Ru4
1.0
5.885894 0.000000 0.000000
-0.000000 5.885894 0.000000
0.000000 0.000000 5.885894
Cr Co Ge Ru
4 4 4 4
direct
0.750000 0.250000 0.250000 Cr
0.750000 0.750000 0.750000 Cr
0.250000 0.250000 0.750000 Cr
0.250000 0.750000 0.250000 Cr
0.500000 0.500000 0.500000 Co
0.500000 0.000000 0.000000 Co
0.000000 0.500000 0.000000 Co
0.000000 0.000000 0.500000 Co
0.250000 0.250000 0.250000 Ge
0.250000 0.750000 0.750000 Ge
0.750000 0.250000 0.750000 Ge
0.750000 0.750000 0.250000 Ge
0.500000 0.500000 0.000000 Ru
0.500000 0.000000 0.500000 Ru
0.000000 0.500000 0.500000 Ru
0.000000 0.000000 0.000000 Ru
