Hf4 Al4 Fe4 Pt4
1.0
6.252784 0.000000 0.000000
-0.000000 6.252784 0.000000
0.000000 0.000000 6.252784
Hf Al Fe Pt
4 4 4 4
direct
0.500000 0.000000 0.000000 Hf
0.500000 0.500000 0.500000 Hf
0.000000 0.000000 0.500000 Hf
0.000000 0.500000 0.000000 Hf
0.000000 0.000000 0.000000 Al
0.000000 0.500000 0.500000 Al
0.500000 0.000000 0.500000 Al
0.500000 0.500000 0.000000 Al
0.250000 0.250000 0.250000 Fe
0.250000 0.750000 0.750000 Fe
0.750000 0.250000 0.750000 Fe
0.750000 0.750000 0.250000 Fe
0.250000 0.250000 0.750000 Pt
0.250000 0.750000 0.250000 Pt
0.750000 0.250000 0.250000 Pt
0.750000 0.750000 0.750000 Pt
