Hf4 Ga4 Co4 Ir4
1.0
6.217852 0.000000 0.000000
-0.000000 6.217852 0.000000
0.000000 0.000000 6.217852
Hf Ga Co Ir
4 4 4 4
direct
0.750000 0.250000 0.250000 Hf
0.750000 0.750000 0.750000 Hf
0.250000 0.250000 0.750000 Hf
0.250000 0.750000 0.250000 Hf
0.250000 0.250000 0.250000 Ga
0.250000 0.750000 0.750000 Ga
0.750000 0.250000 0.750000 Ga
0.750000 0.750000 0.250000 Ga
0.500000 0.500000 0.500000 Co
0.500000 0.000000 0.000000 Co
0.000000 0.500000 0.000000 Co
0.000000 0.000000 0.500000 Co
0.500000 0.500000 0.000000 Ir
0.500000 0.000000 0.500000 Ir
0.000000 0.500000 0.500000 Ir
0.000000 0.000000 0.000000 Ir
