Li4 Mn4 Ga4 Pt4
1.0
6.034164 0.000000 0.000000
-0.000000 6.034164 0.000000
0.000000 0.000000 6.034164
Li Mn Ga Pt
4 4 4 4
direct
0.000000 0.500000 0.000000 Li
0.000000 0.000000 0.500000 Li
0.500000 0.500000 0.500000 Li
0.500000 0.000000 0.000000 Li
0.250000 0.250000 0.250000 Mn
0.250000 0.750000 0.750000 Mn
0.750000 0.250000 0.750000 Mn
0.750000 0.750000 0.250000 Mn
0.000000 0.000000 0.000000 Ga
0.000000 0.500000 0.500000 Ga
0.500000 0.000000 0.500000 Ga
0.500000 0.500000 0.000000 Ga
0.250000 0.250000 0.750000 Pt
0.250000 0.750000 0.250000 Pt
0.750000 0.250000 0.250000 Pt
0.750000 0.750000 0.750000 Pt
