Sc4 Cr4 Sn4 Ru4
1.0
6.463924 0.000000 0.000000
-0.000000 6.463924 0.000000
0.000000 0.000000 6.463924
Sc Cr Sn Ru
4 4 4 4
direct
0.250000 0.750000 0.250000 Sc
0.250000 0.250000 0.750000 Sc
0.750000 0.750000 0.750000 Sc
0.750000 0.250000 0.250000 Sc
0.500000 0.500000 0.500000 Cr
0.500000 0.000000 0.000000 Cr
0.000000 0.500000 0.000000 Cr
0.000000 0.000000 0.500000 Cr
0.250000 0.250000 0.250000 Sn
0.250000 0.750000 0.750000 Sn
0.750000 0.250000 0.750000 Sn
0.750000 0.750000 0.250000 Sn
0.500000 0.500000 0.000000 Ru
0.500000 0.000000 0.500000 Ru
0.000000 0.500000 0.500000 Ru
0.000000 0.000000 0.000000 Ru
