Ta4 Co4 Sn4 Ru4
1.0
6.319272 0.000000 0.000000
-0.000000 6.319272 0.000000
0.000000 0.000000 6.319272
Ta Co Sn Ru
4 4 4 4
direct
0.250000 0.750000 0.250000 Ta
0.250000 0.250000 0.750000 Ta
0.750000 0.750000 0.750000 Ta
0.750000 0.250000 0.250000 Ta
0.500000 0.500000 0.500000 Co
0.500000 0.000000 0.000000 Co
0.000000 0.500000 0.000000 Co
0.000000 0.000000 0.500000 Co
0.250000 0.250000 0.250000 Sn
0.250000 0.750000 0.750000 Sn
0.750000 0.250000 0.750000 Sn
0.750000 0.750000 0.250000 Sn
0.500000 0.500000 0.000000 Ru
0.500000 0.000000 0.500000 Ru
0.000000 0.500000 0.500000 Ru
0.000000 0.000000 0.000000 Ru
