Li4 Cr4 Ge4 Pt4
1.0
6.038840 0.000000 0.000000
-0.000000 6.038840 0.000000
0.000000 0.000000 6.038840
Li Cr Ge Pt
4 4 4 4
direct
0.750000 0.250000 0.250000 Li
0.750000 0.750000 0.750000 Li
0.250000 0.250000 0.750000 Li
0.250000 0.750000 0.250000 Li
0.500000 0.500000 0.500000 Cr
0.500000 0.000000 0.000000 Cr
0.000000 0.500000 0.000000 Cr
0.000000 0.000000 0.500000 Cr
0.250000 0.250000 0.250000 Ge
0.250000 0.750000 0.750000 Ge
0.750000 0.250000 0.750000 Ge
0.750000 0.750000 0.250000 Ge
0.500000 0.500000 0.000000 Pt
0.500000 0.000000 0.500000 Pt
0.000000 0.500000 0.500000 Pt
0.000000 0.000000 0.000000 Pt
