Al4 V4 Fe4 Ir4
1.0
5.911848 0.000000 0.000000
-0.000000 5.911848 0.000000
0.000000 0.000000 5.911848
Al V Fe Ir
4 4 4 4
direct
0.000000 0.000000 0.000000 Al
0.000000 0.500000 0.500000 Al
0.500000 0.000000 0.500000 Al
0.500000 0.500000 0.000000 Al
0.500000 0.000000 0.000000 V
0.500000 0.500000 0.500000 V
0.000000 0.000000 0.500000 V
0.000000 0.500000 0.000000 V
0.250000 0.250000 0.250000 Fe
0.250000 0.750000 0.750000 Fe
0.750000 0.250000 0.750000 Fe
0.750000 0.750000 0.250000 Fe
0.250000 0.250000 0.750000 Ir
0.250000 0.750000 0.250000 Ir
0.750000 0.250000 0.250000 Ir
0.750000 0.750000 0.750000 Ir
