Zr4 Al4 Fe4 Ni4
1.0
6.091290 0.000000 0.000000
-0.000000 6.091290 0.000000
0.000000 0.000000 6.091290
Zr Al Fe Ni
4 4 4 4
direct
0.000000 0.500000 0.000000 Zr
0.000000 0.000000 0.500000 Zr
0.500000 0.500000 0.500000 Zr
0.500000 0.000000 0.000000 Zr
0.000000 0.000000 0.000000 Al
0.000000 0.500000 0.500000 Al
0.500000 0.000000 0.500000 Al
0.500000 0.500000 0.000000 Al
0.250000 0.250000 0.250000 Fe
0.250000 0.750000 0.750000 Fe
0.750000 0.250000 0.750000 Fe
0.750000 0.750000 0.250000 Fe
0.250000 0.250000 0.750000 Ni
0.250000 0.750000 0.250000 Ni
0.750000 0.250000 0.250000 Ni
0.750000 0.750000 0.750000 Ni
