Ta4 Fe4 Sn4 Ru4
1.0
6.296892 0.000000 0.000000
-0.000000 6.296892 0.000000
0.000000 0.000000 6.296892
Ta Fe Sn Ru
4 4 4 4
direct
0.500000 0.500000 0.500000 Ta
0.500000 0.000000 0.000000 Ta
0.000000 0.500000 0.000000 Ta
0.000000 0.000000 0.500000 Ta
0.750000 0.250000 0.750000 Fe
0.750000 0.750000 0.250000 Fe
0.250000 0.250000 0.250000 Fe
0.250000 0.750000 0.750000 Fe
0.500000 0.000000 0.500000 Sn
0.500000 0.500000 0.000000 Sn
0.000000 0.000000 0.000000 Sn
0.000000 0.500000 0.500000 Sn
0.750000 0.250000 0.250000 Ru
0.750000 0.750000 0.750000 Ru
0.250000 0.250000 0.750000 Ru
0.250000 0.750000 0.250000 Ru
