Fe4 Co4 Si4 Ir4
1.0
5.812644 0.000000 0.000000
-0.000000 5.812644 0.000000
0.000000 0.000000 5.812644
Fe Co Si Ir
4 4 4 4
direct
0.750000 0.250000 0.250000 Fe
0.750000 0.750000 0.750000 Fe
0.250000 0.250000 0.750000 Fe
0.250000 0.750000 0.250000 Fe
0.500000 0.500000 0.500000 Co
0.500000 0.000000 0.000000 Co
0.000000 0.500000 0.000000 Co
0.000000 0.000000 0.500000 Co
0.250000 0.250000 0.250000 Si
0.250000 0.750000 0.750000 Si
0.750000 0.250000 0.750000 Si
0.750000 0.750000 0.250000 Si
0.500000 0.500000 0.000000 Ir
0.500000 0.000000 0.500000 Ir
0.000000 0.500000 0.500000 Ir
0.000000 0.000000 0.000000 Ir
