Mn4 Ga4 Tc4 W4
1.0
6.071648 0.000000 0.000000
-0.000000 6.071648 0.000000
0.000000 0.000000 6.071648
Mn Ga Tc W
4 4 4 4
direct
0.250000 0.250000 0.250000 Mn
0.250000 0.750000 0.750000 Mn
0.750000 0.250000 0.750000 Mn
0.750000 0.750000 0.250000 Mn
0.000000 0.000000 0.000000 Ga
0.000000 0.500000 0.500000 Ga
0.500000 0.000000 0.500000 Ga
0.500000 0.500000 0.000000 Ga
0.250000 0.250000 0.750000 Tc
0.250000 0.750000 0.250000 Tc
0.750000 0.250000 0.250000 Tc
0.750000 0.750000 0.750000 Tc
0.500000 0.000000 0.000000 W
0.500000 0.500000 0.500000 W
0.000000 0.000000 0.500000 W
0.000000 0.500000 0.000000 W
