Mn4 Zn4 Co4 Ni4
1.0
5.712288 0.000000 0.000000
-0.000000 5.712288 0.000000
0.000000 0.000000 5.712288
Mn Zn Co Ni
4 4 4 4
direct
0.500000 0.500000 0.500000 Mn
0.500000 0.000000 0.000000 Mn
0.000000 0.500000 0.000000 Mn
0.000000 0.000000 0.500000 Mn
0.500000 0.500000 0.000000 Zn
0.500000 0.000000 0.500000 Zn
0.000000 0.500000 0.500000 Zn
0.000000 0.000000 0.000000 Zn
0.750000 0.250000 0.250000 Co
0.750000 0.750000 0.750000 Co
0.250000 0.250000 0.750000 Co
0.250000 0.750000 0.250000 Co
0.250000 0.250000 0.250000 Ni
0.250000 0.750000 0.750000 Ni
0.750000 0.250000 0.750000 Ni
0.750000 0.750000 0.250000 Ni
