Zr4 Fe4 Tc4 Sn4
1.0
6.422232 0.000000 0.000000
-0.000000 6.422232 0.000000
0.000000 0.000000 6.422232
Zr Fe Tc Sn
4 4 4 4
direct
0.750000 0.250000 0.250000 Zr
0.750000 0.750000 0.750000 Zr
0.250000 0.250000 0.750000 Zr
0.250000 0.750000 0.250000 Zr
0.500000 0.500000 0.500000 Fe
0.500000 0.000000 0.000000 Fe
0.000000 0.500000 0.000000 Fe
0.000000 0.000000 0.500000 Fe
0.500000 0.500000 0.000000 Tc
0.500000 0.000000 0.500000 Tc
0.000000 0.500000 0.500000 Tc
0.000000 0.000000 0.000000 Tc
0.250000 0.250000 0.250000 Sn
0.250000 0.750000 0.750000 Sn
0.750000 0.250000 0.750000 Sn
0.750000 0.750000 0.250000 Sn
