V4 Cr4 Si4 Ru4
1.0
5.854926 0.000000 0.000000
-0.000000 5.854926 0.000000
0.000000 0.000000 5.854926
V Cr Si Ru
4 4 4 4
direct
0.000000 0.000000 0.500000 V
0.000000 0.500000 0.000000 V
0.500000 0.000000 0.000000 V
0.500000 0.500000 0.500000 V
0.750000 0.250000 0.750000 Cr
0.750000 0.750000 0.250000 Cr
0.250000 0.250000 0.250000 Cr
0.250000 0.750000 0.750000 Cr
0.500000 0.000000 0.500000 Si
0.500000 0.500000 0.000000 Si
0.000000 0.000000 0.000000 Si
0.000000 0.500000 0.500000 Si
0.750000 0.250000 0.250000 Ru
0.750000 0.750000 0.750000 Ru
0.250000 0.250000 0.750000 Ru
0.250000 0.750000 0.250000 Ru
