Ti4 Mn4 Fe4 Si4
1.0
5.716042 0.000000 0.000000
-0.000000 5.716042 0.000000
0.000000 0.000000 5.716042
Ti Mn Fe Si
4 4 4 4
direct
0.750000 0.750000 0.750000 Ti
0.750000 0.250000 0.250000 Ti
0.250000 0.750000 0.250000 Ti
0.250000 0.250000 0.750000 Ti
0.000000 0.500000 0.000000 Mn
0.000000 0.000000 0.500000 Mn
0.500000 0.500000 0.500000 Mn
0.500000 0.000000 0.000000 Mn
0.000000 0.000000 0.000000 Fe
0.000000 0.500000 0.500000 Fe
0.500000 0.000000 0.500000 Fe
0.500000 0.500000 0.000000 Fe
0.750000 0.750000 0.250000 Si
0.750000 0.250000 0.750000 Si
0.250000 0.750000 0.750000 Si
0.250000 0.250000 0.250000 Si
