Mg4 Co4 Ni4 Sn4
1.0
6.136134 0.000000 0.000000
-0.000000 6.136134 0.000000
0.000000 0.000000 6.136134
Mg Co Ni Sn
4 4 4 4
direct
0.500000 0.500000 0.500000 Mg
0.500000 0.000000 0.000000 Mg
0.000000 0.500000 0.000000 Mg
0.000000 0.000000 0.500000 Mg
0.750000 0.250000 0.250000 Co
0.750000 0.750000 0.750000 Co
0.250000 0.250000 0.750000 Co
0.250000 0.750000 0.250000 Co
0.750000 0.250000 0.750000 Ni
0.750000 0.750000 0.250000 Ni
0.250000 0.250000 0.250000 Ni
0.250000 0.750000 0.750000 Ni
0.500000 0.000000 0.500000 Sn
0.500000 0.500000 0.000000 Sn
0.000000 0.000000 0.000000 Sn
0.000000 0.500000 0.500000 Sn
