Nb4 Ga4 Fe4 Rh4
1.0
6.109942 0.000000 0.000000
-0.000000 6.109942 0.000000
0.000000 0.000000 6.109942
Nb Ga Fe Rh
4 4 4 4
direct
0.000000 0.000000 0.500000 Nb
0.000000 0.500000 0.000000 Nb
0.500000 0.000000 0.000000 Nb
0.500000 0.500000 0.500000 Nb
0.500000 0.000000 0.500000 Ga
0.500000 0.500000 0.000000 Ga
0.000000 0.000000 0.000000 Ga
0.000000 0.500000 0.500000 Ga
0.750000 0.250000 0.750000 Fe
0.750000 0.750000 0.250000 Fe
0.250000 0.250000 0.250000 Fe
0.250000 0.750000 0.750000 Fe
0.750000 0.250000 0.250000 Rh
0.750000 0.750000 0.750000 Rh
0.250000 0.250000 0.750000 Rh
0.250000 0.750000 0.250000 Rh
