Mn4 Ga4 Cu4 Ni4
1.0
5.747586 0.000000 0.000000
-0.000000 5.747586 0.000000
0.000000 0.000000 5.747586
Mn Ga Cu Ni
4 4 4 4
direct
0.500000 0.500000 0.500000 Mn
0.500000 0.000000 0.000000 Mn
0.000000 0.500000 0.000000 Mn
0.000000 0.000000 0.500000 Mn
0.500000 0.500000 0.000000 Ga
0.500000 0.000000 0.500000 Ga
0.000000 0.500000 0.500000 Ga
0.000000 0.000000 0.000000 Ga
0.750000 0.250000 0.250000 Cu
0.750000 0.750000 0.750000 Cu
0.250000 0.250000 0.750000 Cu
0.250000 0.750000 0.250000 Cu
0.250000 0.250000 0.250000 Ni
0.250000 0.750000 0.750000 Ni
0.750000 0.250000 0.750000 Ni
0.750000 0.750000 0.250000 Ni
