Mn4 Nb4 Ga4 Fe4
1.0
5.958264 0.000000 0.000000
-0.000000 5.958264 0.000000
0.000000 0.000000 5.958264
Mn Nb Ga Fe
4 4 4 4
direct
0.750000 0.250000 0.250000 Mn
0.750000 0.750000 0.750000 Mn
0.250000 0.250000 0.750000 Mn
0.250000 0.750000 0.250000 Mn
0.000000 0.000000 0.500000 Nb
0.000000 0.500000 0.000000 Nb
0.500000 0.000000 0.000000 Nb
0.500000 0.500000 0.500000 Nb
0.500000 0.000000 0.500000 Ga
0.500000 0.500000 0.000000 Ga
0.000000 0.000000 0.000000 Ga
0.000000 0.500000 0.500000 Ga
0.750000 0.250000 0.750000 Fe
0.750000 0.750000 0.250000 Fe
0.250000 0.250000 0.250000 Fe
0.250000 0.750000 0.750000 Fe
