Be4 Co4 Ni4 Ge4
1.0
5.545618 0.000000 0.000000
-0.000000 5.545618 0.000000
0.000000 0.000000 5.545618
Be Co Ni Ge
4 4 4 4
direct
0.500000 0.500000 0.500000 Be
0.500000 0.000000 0.000000 Be
0.000000 0.500000 0.000000 Be
0.000000 0.000000 0.500000 Be
0.250000 0.250000 0.250000 Co
0.250000 0.750000 0.750000 Co
0.750000 0.250000 0.750000 Co
0.750000 0.750000 0.250000 Co
0.750000 0.250000 0.250000 Ni
0.750000 0.750000 0.750000 Ni
0.250000 0.250000 0.750000 Ni
0.250000 0.750000 0.250000 Ni
0.500000 0.500000 0.000000 Ge
0.500000 0.000000 0.500000 Ge
0.000000 0.500000 0.500000 Ge
0.000000 0.000000 0.000000 Ge
