Li4 Cr4 Ge4 Ir4
1.0
5.961436 0.000000 0.000000
-0.000000 5.961436 0.000000
0.000000 0.000000 5.961436
Li Cr Ge Ir
4 4 4 4
direct
0.000000 0.000000 0.500000 Li
0.000000 0.500000 0.000000 Li
0.500000 0.000000 0.000000 Li
0.500000 0.500000 0.500000 Li
0.750000 0.250000 0.750000 Cr
0.750000 0.750000 0.250000 Cr
0.250000 0.250000 0.250000 Cr
0.250000 0.750000 0.750000 Cr
0.500000 0.000000 0.500000 Ge
0.500000 0.500000 0.000000 Ge
0.000000 0.000000 0.000000 Ge
0.000000 0.500000 0.500000 Ge
0.750000 0.250000 0.250000 Ir
0.750000 0.750000 0.750000 Ir
0.250000 0.250000 0.750000 Ir
0.250000 0.750000 0.250000 Ir
