Sc4 Ti4 Ga4 Cu4
1.0
6.423350 0.000000 0.000000
-0.000000 6.423350 0.000000
0.000000 0.000000 6.423350
Sc Ti Ga Cu
4 4 4 4
direct
0.750000 0.250000 0.250000 Sc
0.750000 0.750000 0.750000 Sc
0.250000 0.250000 0.750000 Sc
0.250000 0.750000 0.250000 Sc
0.250000 0.250000 0.250000 Ti
0.250000 0.750000 0.750000 Ti
0.750000 0.250000 0.750000 Ti
0.750000 0.750000 0.250000 Ti
0.500000 0.500000 0.000000 Ga
0.500000 0.000000 0.500000 Ga
0.000000 0.500000 0.500000 Ga
0.000000 0.000000 0.000000 Ga
0.500000 0.500000 0.500000 Cu
0.500000 0.000000 0.000000 Cu
0.000000 0.500000 0.000000 Cu
0.000000 0.000000 0.500000 Cu
