Sc4 Mn4 Al4 Ru4
1.0
6.233246 0.000000 0.000000
-0.000000 6.233246 0.000000
0.000000 0.000000 6.233246
Sc Mn Al Ru
4 4 4 4
direct
0.500000 0.000000 0.000000 Sc
0.500000 0.500000 0.500000 Sc
0.000000 0.000000 0.500000 Sc
0.000000 0.500000 0.000000 Sc
0.250000 0.250000 0.250000 Mn
0.250000 0.750000 0.750000 Mn
0.750000 0.250000 0.750000 Mn
0.750000 0.750000 0.250000 Mn
0.000000 0.000000 0.000000 Al
0.000000 0.500000 0.500000 Al
0.500000 0.000000 0.500000 Al
0.500000 0.500000 0.000000 Al
0.250000 0.250000 0.750000 Ru
0.250000 0.750000 0.250000 Ru
0.750000 0.250000 0.250000 Ru
0.750000 0.750000 0.750000 Ru
