Ta4 Mn4 Ga4 Tc4
1.0
6.149526 0.000000 0.000000
-0.000000 6.149526 0.000000
0.000000 0.000000 6.149526
Ta Mn Ga Tc
4 4 4 4
direct
0.000000 0.500000 0.000000 Ta
0.000000 0.000000 0.500000 Ta
0.500000 0.500000 0.500000 Ta
0.500000 0.000000 0.000000 Ta
0.250000 0.250000 0.250000 Mn
0.250000 0.750000 0.750000 Mn
0.750000 0.250000 0.750000 Mn
0.750000 0.750000 0.250000 Mn
0.000000 0.000000 0.000000 Ga
0.000000 0.500000 0.500000 Ga
0.500000 0.000000 0.500000 Ga
0.500000 0.500000 0.000000 Ga
0.250000 0.250000 0.750000 Tc
0.250000 0.750000 0.250000 Tc
0.750000 0.250000 0.250000 Tc
0.750000 0.750000 0.750000 Tc
