Ta4 Mn4 Ga4 Fe4
1.0
5.947046 0.000000 0.000000
-0.000000 5.947046 0.000000
0.000000 0.000000 5.947046
Ta Mn Ga Fe
4 4 4 4
direct
0.750000 0.250000 0.250000 Ta
0.750000 0.750000 0.750000 Ta
0.250000 0.250000 0.750000 Ta
0.250000 0.750000 0.250000 Ta
0.500000 0.500000 0.000000 Mn
0.500000 0.000000 0.500000 Mn
0.000000 0.500000 0.500000 Mn
0.000000 0.000000 0.000000 Mn
0.250000 0.250000 0.250000 Ga
0.250000 0.750000 0.750000 Ga
0.750000 0.250000 0.750000 Ga
0.750000 0.750000 0.250000 Ga
0.500000 0.500000 0.500000 Fe
0.500000 0.000000 0.000000 Fe
0.000000 0.500000 0.000000 Fe
0.000000 0.000000 0.500000 Fe
