Zr4 Al4 Co4 Ni4
1.0
6.089502 0.000000 0.000000
-0.000000 6.089502 0.000000
0.000000 0.000000 6.089502
Zr Al Co Ni
4 4 4 4
direct
0.500000 0.000000 0.000000 Zr
0.500000 0.500000 0.500000 Zr
0.000000 0.000000 0.500000 Zr
0.000000 0.500000 0.000000 Zr
0.000000 0.000000 0.000000 Al
0.000000 0.500000 0.500000 Al
0.500000 0.000000 0.500000 Al
0.500000 0.500000 0.000000 Al
0.250000 0.250000 0.250000 Co
0.250000 0.750000 0.750000 Co
0.750000 0.250000 0.750000 Co
0.750000 0.750000 0.250000 Co
0.250000 0.250000 0.750000 Ni
0.250000 0.750000 0.250000 Ni
0.750000 0.250000 0.250000 Ni
0.750000 0.750000 0.750000 Ni
