V4 Co4 Si4 Ru4
1.0
5.814784 0.000000 0.000000
-0.000000 5.814784 0.000000
0.000000 0.000000 5.814784
V Co Si Ru
4 4 4 4
direct
0.000000 0.000000 0.500000 V
0.000000 0.500000 0.000000 V
0.500000 0.000000 0.000000 V
0.500000 0.500000 0.500000 V
0.750000 0.250000 0.750000 Co
0.750000 0.750000 0.250000 Co
0.250000 0.250000 0.250000 Co
0.250000 0.750000 0.750000 Co
0.500000 0.000000 0.500000 Si
0.500000 0.500000 0.000000 Si
0.000000 0.000000 0.000000 Si
0.000000 0.500000 0.500000 Si
0.750000 0.250000 0.250000 Ru
0.750000 0.750000 0.750000 Ru
0.250000 0.250000 0.750000 Ru
0.250000 0.750000 0.250000 Ru
