Li4 Nb4 Ga4 Fe4
1.0
5.971982 0.000000 0.000000
-0.000000 5.971982 0.000000
0.000000 0.000000 5.971982
Li Nb Ga Fe
4 4 4 4
direct
0.500000 0.500000 0.000000 Li
0.500000 0.000000 0.500000 Li
0.000000 0.500000 0.500000 Li
0.000000 0.000000 0.000000 Li
0.750000 0.250000 0.250000 Nb
0.750000 0.750000 0.750000 Nb
0.250000 0.250000 0.750000 Nb
0.250000 0.750000 0.250000 Nb
0.250000 0.250000 0.250000 Ga
0.250000 0.750000 0.750000 Ga
0.750000 0.250000 0.750000 Ga
0.750000 0.750000 0.250000 Ga
0.500000 0.500000 0.500000 Fe
0.500000 0.000000 0.000000 Fe
0.000000 0.500000 0.000000 Fe
0.000000 0.000000 0.500000 Fe
