Ti4 Be4 Al4 Fe4
1.0
5.775808 0.000000 0.000000
-0.000000 5.775808 0.000000
0.000000 0.000000 5.775808
Ti Be Al Fe
4 4 4 4
direct
0.500000 0.500000 0.500000 Ti
0.500000 0.000000 0.000000 Ti
0.000000 0.500000 0.000000 Ti
0.000000 0.000000 0.500000 Ti
0.750000 0.250000 0.250000 Be
0.750000 0.750000 0.750000 Be
0.250000 0.250000 0.750000 Be
0.250000 0.750000 0.250000 Be
0.500000 0.500000 0.000000 Al
0.500000 0.000000 0.500000 Al
0.000000 0.500000 0.500000 Al
0.000000 0.000000 0.000000 Al
0.250000 0.250000 0.250000 Fe
0.250000 0.750000 0.750000 Fe
0.750000 0.250000 0.750000 Fe
0.750000 0.750000 0.250000 Fe
