Cr4 Ga4 Fe4 Tc4
1.0
5.872562 0.000000 0.000000
-0.000000 5.872562 0.000000
0.000000 0.000000 5.872562
Cr Ga Fe Tc
4 4 4 4
direct
0.750000 0.250000 0.250000 Cr
0.750000 0.750000 0.750000 Cr
0.250000 0.250000 0.750000 Cr
0.250000 0.750000 0.250000 Cr
0.250000 0.250000 0.250000 Ga
0.250000 0.750000 0.750000 Ga
0.750000 0.250000 0.750000 Ga
0.750000 0.750000 0.250000 Ga
0.500000 0.500000 0.500000 Fe
0.500000 0.000000 0.000000 Fe
0.000000 0.500000 0.000000 Fe
0.000000 0.000000 0.500000 Fe
0.500000 0.500000 0.000000 Tc
0.500000 0.000000 0.500000 Tc
0.000000 0.500000 0.500000 Tc
0.000000 0.000000 0.000000 Tc
