Ti4 Zn4 Co4 Cu4
1.0
5.884305 0.000000 0.000000
-0.000000 5.884305 0.000000
0.000000 0.000000 5.884305
Ti Zn Co Cu
4 4 4 4
direct
0.000000 0.000000 0.500000 Ti
0.000000 0.500000 0.000000 Ti
0.500000 0.000000 0.000000 Ti
0.500000 0.500000 0.500000 Ti
0.000000 0.000000 0.000000 Zn
0.000000 0.500000 0.500000 Zn
0.500000 0.000000 0.500000 Zn
0.500000 0.500000 0.000000 Zn
0.250000 0.750000 0.750000 Co
0.250000 0.250000 0.250000 Co
0.750000 0.750000 0.250000 Co
0.750000 0.250000 0.750000 Co
0.250000 0.250000 0.750000 Cu
0.250000 0.750000 0.250000 Cu
0.750000 0.250000 0.250000 Cu
0.750000 0.750000 0.750000 Cu
