Mg4 Co4 Ge4 Ir4
1.0
6.006716 0.000000 0.000000
-0.000000 6.006716 0.000000
0.000000 0.000000 6.006716
Mg Co Ge Ir
4 4 4 4
direct
0.500000 0.500000 0.500000 Mg
0.500000 0.000000 0.000000 Mg
0.000000 0.500000 0.000000 Mg
0.000000 0.000000 0.500000 Mg
0.750000 0.250000 0.750000 Co
0.750000 0.750000 0.250000 Co
0.250000 0.250000 0.250000 Co
0.250000 0.750000 0.750000 Co
0.500000 0.000000 0.500000 Ge
0.500000 0.500000 0.000000 Ge
0.000000 0.000000 0.000000 Ge
0.000000 0.500000 0.500000 Ge
0.750000 0.250000 0.250000 Ir
0.750000 0.750000 0.750000 Ir
0.250000 0.250000 0.750000 Ir
0.250000 0.750000 0.250000 Ir
