Nb4 Ga4 Co4 Ni4
1.0
5.965430 0.000000 0.000000
-0.000000 5.965430 0.000000
0.000000 0.000000 5.965430
Nb Ga Co Ni
4 4 4 4
direct
0.500000 0.500000 0.500000 Nb
0.500000 0.000000 0.000000 Nb
0.000000 0.500000 0.000000 Nb
0.000000 0.000000 0.500000 Nb
0.500000 0.000000 0.500000 Ga
0.500000 0.500000 0.000000 Ga
0.000000 0.000000 0.000000 Ga
0.000000 0.500000 0.500000 Ga
0.750000 0.250000 0.750000 Co
0.750000 0.750000 0.250000 Co
0.250000 0.250000 0.250000 Co
0.250000 0.750000 0.750000 Co
0.750000 0.250000 0.250000 Ni
0.750000 0.750000 0.750000 Ni
0.250000 0.250000 0.750000 Ni
0.250000 0.750000 0.250000 Ni
