Li4 Mn4 Zn4 Ga4
1.0
5.897386 0.000000 0.000000
-0.000000 5.897386 0.000000
0.000000 0.000000 5.897386
Li Mn Zn Ga
4 4 4 4
direct
0.500000 0.000000 0.500000 Li
0.500000 0.500000 0.000000 Li
0.000000 0.000000 0.000000 Li
0.000000 0.500000 0.500000 Li
0.000000 0.000000 0.500000 Mn
0.000000 0.500000 0.000000 Mn
0.500000 0.000000 0.000000 Mn
0.500000 0.500000 0.500000 Mn
0.750000 0.250000 0.750000 Zn
0.750000 0.750000 0.250000 Zn
0.250000 0.250000 0.250000 Zn
0.250000 0.750000 0.750000 Zn
0.750000 0.250000 0.250000 Ga
0.750000 0.750000 0.750000 Ga
0.250000 0.250000 0.750000 Ga
0.250000 0.750000 0.250000 Ga
