Li4 Fe4 Si4 Ru4
1.0
5.702798 0.000000 0.000000
-0.000000 5.702798 0.000000
0.000000 0.000000 5.702798
Li Fe Si Ru
4 4 4 4
direct
0.500000 0.500000 0.500000 Li
0.500000 0.000000 0.000000 Li
0.000000 0.500000 0.000000 Li
0.000000 0.000000 0.500000 Li
0.750000 0.250000 0.750000 Fe
0.750000 0.750000 0.250000 Fe
0.250000 0.250000 0.250000 Fe
0.250000 0.750000 0.750000 Fe
0.500000 0.000000 0.500000 Si
0.500000 0.500000 0.000000 Si
0.000000 0.000000 0.000000 Si
0.000000 0.500000 0.500000 Si
0.750000 0.250000 0.250000 Ru
0.750000 0.750000 0.750000 Ru
0.250000 0.250000 0.750000 Ru
0.250000 0.750000 0.250000 Ru
