Be4 Fe4 Si4 Tc4
1.0
5.615982 0.000000 0.000000
-0.000000 5.615982 0.000000
0.000000 0.000000 5.615982
Be Fe Si Tc
4 4 4 4
direct
0.750000 0.250000 0.250000 Be
0.750000 0.750000 0.750000 Be
0.250000 0.250000 0.750000 Be
0.250000 0.750000 0.250000 Be
0.500000 0.500000 0.500000 Fe
0.500000 0.000000 0.000000 Fe
0.000000 0.500000 0.000000 Fe
0.000000 0.000000 0.500000 Fe
0.250000 0.250000 0.250000 Si
0.250000 0.750000 0.750000 Si
0.750000 0.250000 0.750000 Si
0.750000 0.750000 0.250000 Si
0.500000 0.500000 0.000000 Tc
0.500000 0.000000 0.500000 Tc
0.000000 0.500000 0.500000 Tc
0.000000 0.000000 0.000000 Tc
