Nb4 Cr4 Ga4 Tc4
1.0
6.228096 0.000000 0.000000
-0.000000 6.228096 0.000000
0.000000 0.000000 6.228096
Nb Cr Ga Tc
4 4 4 4
direct
0.750000 0.250000 0.250000 Nb
0.750000 0.750000 0.750000 Nb
0.250000 0.250000 0.750000 Nb
0.250000 0.750000 0.250000 Nb
0.500000 0.500000 0.500000 Cr
0.500000 0.000000 0.000000 Cr
0.000000 0.500000 0.000000 Cr
0.000000 0.000000 0.500000 Cr
0.250000 0.250000 0.250000 Ga
0.250000 0.750000 0.750000 Ga
0.750000 0.250000 0.750000 Ga
0.750000 0.750000 0.250000 Ga
0.500000 0.500000 0.000000 Tc
0.500000 0.000000 0.500000 Tc
0.000000 0.500000 0.500000 Tc
0.000000 0.000000 0.000000 Tc
