Ti4 Ga4 Co4 Pt4
1.0
6.092218 0.000000 0.000000
-0.000000 6.092218 0.000000
0.000000 0.000000 6.092218
Ti Ga Co Pt
4 4 4 4
direct
0.250000 0.750000 0.250000 Ti
0.250000 0.250000 0.750000 Ti
0.750000 0.750000 0.750000 Ti
0.750000 0.250000 0.250000 Ti
0.250000 0.250000 0.250000 Ga
0.250000 0.750000 0.750000 Ga
0.750000 0.250000 0.750000 Ga
0.750000 0.750000 0.250000 Ga
0.500000 0.500000 0.500000 Co
0.500000 0.000000 0.000000 Co
0.000000 0.500000 0.000000 Co
0.000000 0.000000 0.500000 Co
0.500000 0.500000 0.000000 Pt
0.500000 0.000000 0.500000 Pt
0.000000 0.500000 0.500000 Pt
0.000000 0.000000 0.000000 Pt
