Co4 Cu4 Ni4 Sn4
1.0
5.935826 0.000000 0.000000
-0.000000 5.935826 0.000000
0.000000 0.000000 5.935826
Co Cu Ni Sn
4 4 4 4
direct
0.750000 0.250000 0.250000 Co
0.750000 0.750000 0.750000 Co
0.250000 0.250000 0.750000 Co
0.250000 0.750000 0.250000 Co
0.500000 0.500000 0.500000 Cu
0.500000 0.000000 0.000000 Cu
0.000000 0.500000 0.000000 Cu
0.000000 0.000000 0.500000 Cu
0.250000 0.250000 0.250000 Ni
0.250000 0.750000 0.750000 Ni
0.750000 0.250000 0.750000 Ni
0.750000 0.750000 0.250000 Ni
0.500000 0.500000 0.000000 Sn
0.500000 0.000000 0.500000 Sn
0.000000 0.500000 0.500000 Sn
0.000000 0.000000 0.000000 Sn
