Mn4 Al4 Tc4 Ni4
1.0
5.891353 0.000000 0.000000
-0.000000 5.891353 0.000000
0.000000 0.000000 5.891353
Mn Al Tc Ni
4 4 4 4
direct
0.500000 0.000000 0.000000 Mn
0.500000 0.500000 0.500000 Mn
0.000000 0.000000 0.500000 Mn
0.000000 0.500000 0.000000 Mn
0.000000 0.000000 0.000000 Al
0.000000 0.500000 0.500000 Al
0.500000 0.000000 0.500000 Al
0.500000 0.500000 0.000000 Al
0.750000 0.750000 0.750000 Tc
0.750000 0.250000 0.250000 Tc
0.250000 0.750000 0.250000 Tc
0.250000 0.250000 0.750000 Tc
0.250000 0.250000 0.250000 Ni
0.250000 0.750000 0.750000 Ni
0.750000 0.250000 0.750000 Ni
0.750000 0.750000 0.250000 Ni
