Ta4 Fe4 Ge4 Os4
1.0
6.123792 0.000000 0.000000
-0.000000 6.123792 0.000000
0.000000 0.000000 6.123792
Ta Fe Ge Os
4 4 4 4
direct
0.250000 0.750000 0.250000 Ta
0.250000 0.250000 0.750000 Ta
0.750000 0.750000 0.750000 Ta
0.750000 0.250000 0.250000 Ta
0.500000 0.500000 0.500000 Fe
0.500000 0.000000 0.000000 Fe
0.000000 0.500000 0.000000 Fe
0.000000 0.000000 0.500000 Fe
0.250000 0.250000 0.250000 Ge
0.250000 0.750000 0.750000 Ge
0.750000 0.250000 0.750000 Ge
0.750000 0.750000 0.250000 Ge
0.500000 0.500000 0.000000 Os
0.500000 0.000000 0.500000 Os
0.000000 0.500000 0.500000 Os
0.000000 0.000000 0.000000 Os
