Mn4 Ni4 Sn4 Pd4
1.0
6.249986 0.000000 0.000000
-0.000000 6.249986 0.000000
0.000000 0.000000 6.249986
Mn Ni Sn Pd
4 4 4 4
direct
0.750000 0.250000 0.250000 Mn
0.750000 0.750000 0.750000 Mn
0.250000 0.250000 0.750000 Mn
0.250000 0.750000 0.250000 Mn
0.500000 0.500000 0.500000 Ni
0.500000 0.000000 0.000000 Ni
0.000000 0.500000 0.000000 Ni
0.000000 0.000000 0.500000 Ni
0.250000 0.250000 0.250000 Sn
0.250000 0.750000 0.750000 Sn
0.750000 0.250000 0.750000 Sn
0.750000 0.750000 0.250000 Sn
0.500000 0.500000 0.000000 Pd
0.500000 0.000000 0.500000 Pd
0.000000 0.500000 0.500000 Pd
0.000000 0.000000 0.000000 Pd
