Li4 Zr4 Al4 Co4
1.0
6.132308 0.000000 0.000000
-0.000000 6.132308 0.000000
0.000000 0.000000 6.132308
Li Zr Al Co
4 4 4 4
direct
0.250000 0.250000 0.750000 Li
0.250000 0.750000 0.250000 Li
0.750000 0.250000 0.250000 Li
0.750000 0.750000 0.750000 Li
0.500000 0.000000 0.000000 Zr
0.500000 0.500000 0.500000 Zr
0.000000 0.000000 0.500000 Zr
0.000000 0.500000 0.000000 Zr
0.000000 0.000000 0.000000 Al
0.000000 0.500000 0.500000 Al
0.500000 0.000000 0.500000 Al
0.500000 0.500000 0.000000 Al
0.250000 0.250000 0.250000 Co
0.250000 0.750000 0.750000 Co
0.750000 0.250000 0.750000 Co
0.750000 0.750000 0.250000 Co
