Li4 Zr4 Ga4 Rh4
1.0
6.302270 0.000000 0.000000
-0.000000 6.302270 0.000000
0.000000 0.000000 6.302270
Li Zr Ga Rh
4 4 4 4
direct
0.750000 0.250000 0.750000 Li
0.750000 0.750000 0.250000 Li
0.250000 0.250000 0.250000 Li
0.250000 0.750000 0.750000 Li
0.500000 0.000000 0.500000 Zr
0.500000 0.500000 0.000000 Zr
0.000000 0.000000 0.000000 Zr
0.000000 0.500000 0.500000 Zr
0.500000 0.500000 0.500000 Ga
0.500000 0.000000 0.000000 Ga
0.000000 0.500000 0.000000 Ga
0.000000 0.000000 0.500000 Ga
0.750000 0.250000 0.250000 Rh
0.750000 0.750000 0.750000 Rh
0.250000 0.250000 0.750000 Rh
0.250000 0.750000 0.250000 Rh
