Ti4 Cr4 Ga4 Os4
1.0
6.122994 0.000000 0.000000
-0.000000 6.122994 0.000000
0.000000 0.000000 6.122994
Ti Cr Ga Os
4 4 4 4
direct
0.500000 0.500000 0.500000 Ti
0.500000 0.000000 0.000000 Ti
0.000000 0.500000 0.000000 Ti
0.000000 0.000000 0.500000 Ti
0.750000 0.250000 0.750000 Cr
0.750000 0.750000 0.250000 Cr
0.250000 0.250000 0.250000 Cr
0.250000 0.750000 0.750000 Cr
0.500000 0.000000 0.500000 Ga
0.500000 0.500000 0.000000 Ga
0.000000 0.000000 0.000000 Ga
0.000000 0.500000 0.500000 Ga
0.750000 0.250000 0.250000 Os
0.750000 0.750000 0.750000 Os
0.250000 0.250000 0.750000 Os
0.250000 0.750000 0.250000 Os
