Zr4 Cr4 Tc4 Sn4
1.0
6.533756 0.000000 0.000000
-0.000000 6.533756 0.000000
0.000000 0.000000 6.533756
Zr Cr Tc Sn
4 4 4 4
direct
0.500000 0.500000 0.500000 Zr
0.500000 0.000000 0.000000 Zr
0.000000 0.500000 0.000000 Zr
0.000000 0.000000 0.500000 Zr
0.750000 0.250000 0.750000 Cr
0.750000 0.750000 0.250000 Cr
0.250000 0.250000 0.250000 Cr
0.250000 0.750000 0.750000 Cr
0.750000 0.250000 0.250000 Tc
0.750000 0.750000 0.750000 Tc
0.250000 0.250000 0.750000 Tc
0.250000 0.750000 0.250000 Tc
0.500000 0.000000 0.500000 Sn
0.500000 0.500000 0.000000 Sn
0.000000 0.000000 0.000000 Sn
0.000000 0.500000 0.500000 Sn
