Ti4 Mn4 Al4 Os4
1.0
6.046392 0.000000 0.000000
-0.000000 6.046392 0.000000
0.000000 0.000000 6.046392
Ti Mn Al Os
4 4 4 4
direct
0.750000 0.250000 0.750000 Ti
0.750000 0.750000 0.250000 Ti
0.250000 0.250000 0.250000 Ti
0.250000 0.750000 0.750000 Ti
0.000000 0.000000 0.500000 Mn
0.000000 0.500000 0.000000 Mn
0.500000 0.000000 0.000000 Mn
0.500000 0.500000 0.500000 Mn
0.750000 0.250000 0.250000 Al
0.750000 0.750000 0.750000 Al
0.250000 0.250000 0.750000 Al
0.250000 0.750000 0.250000 Al
0.500000 0.000000 0.500000 Os
0.500000 0.500000 0.000000 Os
0.000000 0.000000 0.000000 Os
0.000000 0.500000 0.500000 Os
