Mn4 Co4 Si4 Tc4
1.0
5.786536 0.000000 0.000000
-0.000000 5.786536 0.000000
0.000000 0.000000 5.786536
Mn Co Si Tc
4 4 4 4
direct
0.250000 0.750000 0.250000 Mn
0.250000 0.250000 0.750000 Mn
0.750000 0.750000 0.750000 Mn
0.750000 0.250000 0.250000 Mn
0.500000 0.500000 0.500000 Co
0.500000 0.000000 0.000000 Co
0.000000 0.500000 0.000000 Co
0.000000 0.000000 0.500000 Co
0.250000 0.250000 0.250000 Si
0.250000 0.750000 0.750000 Si
0.750000 0.250000 0.750000 Si
0.750000 0.750000 0.250000 Si
0.500000 0.500000 0.000000 Tc
0.500000 0.000000 0.500000 Tc
0.000000 0.500000 0.500000 Tc
0.000000 0.000000 0.000000 Tc
