Mn4 Ga4 Co4 Cu4
1.0
5.828090 0.000000 0.000000
-0.000000 5.828090 0.000000
0.000000 0.000000 5.828090
Mn Ga Co Cu
4 4 4 4
direct
0.750000 0.250000 0.750000 Mn
0.750000 0.750000 0.250000 Mn
0.250000 0.250000 0.250000 Mn
0.250000 0.750000 0.750000 Mn
0.750000 0.250000 0.250000 Ga
0.750000 0.750000 0.750000 Ga
0.250000 0.250000 0.750000 Ga
0.250000 0.750000 0.250000 Ga
0.500000 0.500000 0.500000 Co
0.500000 0.000000 0.000000 Co
0.000000 0.500000 0.000000 Co
0.000000 0.000000 0.500000 Co
0.500000 0.000000 0.500000 Cu
0.500000 0.500000 0.000000 Cu
0.000000 0.000000 0.000000 Cu
0.000000 0.500000 0.500000 Cu
