Fe4 Co4 Ni4 Ge4
1.0
5.730476 0.000000 0.000000
-0.000000 5.730476 0.000000
0.000000 0.000000 5.730476
Fe Co Ni Ge
4 4 4 4
direct
0.750000 0.250000 0.750000 Fe
0.750000 0.750000 0.250000 Fe
0.250000 0.250000 0.250000 Fe
0.250000 0.750000 0.750000 Fe
0.500000 0.500000 0.500000 Co
0.500000 0.000000 0.000000 Co
0.000000 0.500000 0.000000 Co
0.000000 0.000000 0.500000 Co
0.500000 0.000000 0.500000 Ni
0.500000 0.500000 0.000000 Ni
0.000000 0.000000 0.000000 Ni
0.000000 0.500000 0.500000 Ni
0.750000 0.250000 0.250000 Ge
0.750000 0.750000 0.750000 Ge
0.250000 0.250000 0.750000 Ge
0.250000 0.750000 0.250000 Ge
