Mn4 Ga4 Co4 Pd4
1.0
5.989026 0.000000 0.000000
-0.000000 5.989026 0.000000
0.000000 0.000000 5.989026
Mn Ga Co Pd
4 4 4 4
direct
0.000000 0.000000 0.500000 Mn
0.000000 0.500000 0.000000 Mn
0.500000 0.000000 0.000000 Mn
0.500000 0.500000 0.500000 Mn
0.500000 0.000000 0.500000 Ga
0.500000 0.500000 0.000000 Ga
0.000000 0.000000 0.000000 Ga
0.000000 0.500000 0.500000 Ga
0.750000 0.250000 0.750000 Co
0.750000 0.750000 0.250000 Co
0.250000 0.250000 0.250000 Co
0.250000 0.750000 0.750000 Co
0.750000 0.250000 0.250000 Pd
0.750000 0.750000 0.750000 Pd
0.250000 0.250000 0.750000 Pd
0.250000 0.750000 0.250000 Pd
