Nb4 Zn4 Cr4 Os4
1.0
6.204958 0.000000 0.000000
-0.000000 6.204958 0.000000
0.000000 0.000000 6.204958
Nb Zn Cr Os
4 4 4 4
direct
0.500000 0.500000 0.500000 Nb
0.500000 0.000000 0.000000 Nb
0.000000 0.500000 0.000000 Nb
0.000000 0.000000 0.500000 Nb
0.500000 0.000000 0.500000 Zn
0.500000 0.500000 0.000000 Zn
0.000000 0.000000 0.000000 Zn
0.000000 0.500000 0.500000 Zn
0.750000 0.250000 0.750000 Cr
0.750000 0.750000 0.250000 Cr
0.250000 0.250000 0.250000 Cr
0.250000 0.750000 0.750000 Cr
0.750000 0.250000 0.250000 Os
0.750000 0.750000 0.750000 Os
0.250000 0.250000 0.750000 Os
0.250000 0.750000 0.250000 Os
