Al4 Cr4 Co4 Os4
1.0
5.862730 0.000000 0.000000
-0.000000 5.862730 0.000000
0.000000 0.000000 5.862730
Al Cr Co Os
4 4 4 4
direct
0.000000 0.000000 0.000000 Al
0.000000 0.500000 0.500000 Al
0.500000 0.000000 0.500000 Al
0.500000 0.500000 0.000000 Al
0.500000 0.000000 0.000000 Cr
0.500000 0.500000 0.500000 Cr
0.000000 0.000000 0.500000 Cr
0.000000 0.500000 0.000000 Cr
0.250000 0.250000 0.250000 Co
0.250000 0.750000 0.750000 Co
0.750000 0.250000 0.750000 Co
0.750000 0.750000 0.250000 Co
0.250000 0.250000 0.750000 Os
0.250000 0.750000 0.250000 Os
0.750000 0.250000 0.250000 Os
0.750000 0.750000 0.750000 Os
