Mn4 Zn4 Ga4 Co4
1.0
5.877546 0.000000 0.000000
-0.000000 5.877546 0.000000
0.000000 0.000000 5.877546
Mn Zn Ga Co
4 4 4 4
direct
0.250000 0.750000 0.750000 Mn
0.250000 0.250000 0.250000 Mn
0.750000 0.750000 0.250000 Mn
0.750000 0.250000 0.750000 Mn
0.000000 0.000000 0.000000 Zn
0.000000 0.500000 0.500000 Zn
0.500000 0.000000 0.500000 Zn
0.500000 0.500000 0.000000 Zn
0.500000 0.000000 0.000000 Ga
0.500000 0.500000 0.500000 Ga
0.000000 0.000000 0.500000 Ga
0.000000 0.500000 0.000000 Ga
0.250000 0.750000 0.250000 Co
0.250000 0.250000 0.750000 Co
0.750000 0.750000 0.750000 Co
0.750000 0.250000 0.250000 Co
