Li4 Mn4 Al4 Pt4
1.0
5.996022 0.000000 0.000000
-0.000000 5.996022 0.000000
0.000000 0.000000 5.996022
Li Mn Al Pt
4 4 4 4
direct
0.000000 0.500000 0.000000 Li
0.000000 0.000000 0.500000 Li
0.500000 0.500000 0.500000 Li
0.500000 0.000000 0.000000 Li
0.250000 0.250000 0.250000 Mn
0.250000 0.750000 0.750000 Mn
0.750000 0.250000 0.750000 Mn
0.750000 0.750000 0.250000 Mn
0.000000 0.000000 0.000000 Al
0.000000 0.500000 0.500000 Al
0.500000 0.000000 0.500000 Al
0.500000 0.500000 0.000000 Al
0.250000 0.250000 0.750000 Pt
0.250000 0.750000 0.250000 Pt
0.750000 0.250000 0.250000 Pt
0.750000 0.750000 0.750000 Pt
