Ga4 Fe4 Ni4 Pt4
1.0
5.988608 0.000000 0.000000
-0.000000 5.988608 0.000000
0.000000 0.000000 5.988608
Ga Fe Ni Pt
4 4 4 4
direct
0.250000 0.250000 0.250000 Ga
0.250000 0.750000 0.750000 Ga
0.750000 0.250000 0.750000 Ga
0.750000 0.750000 0.250000 Ga
0.750000 0.250000 0.250000 Fe
0.750000 0.750000 0.750000 Fe
0.250000 0.250000 0.750000 Fe
0.250000 0.750000 0.250000 Fe
0.500000 0.500000 0.500000 Ni
0.500000 0.000000 0.000000 Ni
0.000000 0.500000 0.000000 Ni
0.000000 0.000000 0.500000 Ni
0.500000 0.500000 0.000000 Pt
0.500000 0.000000 0.500000 Pt
0.000000 0.500000 0.500000 Pt
0.000000 0.000000 0.000000 Pt
