Hf4 Zn4 Co4 Ni4
1.0
6.025306 0.000000 0.000000
-0.000000 6.025306 0.000000
0.000000 0.000000 6.025306
Hf Zn Co Ni
4 4 4 4
direct
0.000000 0.000000 0.500000 Hf
0.000000 0.500000 0.000000 Hf
0.500000 0.000000 0.000000 Hf
0.500000 0.500000 0.500000 Hf
0.500000 0.000000 0.500000 Zn
0.500000 0.500000 0.000000 Zn
0.000000 0.000000 0.000000 Zn
0.000000 0.500000 0.500000 Zn
0.750000 0.250000 0.750000 Co
0.750000 0.750000 0.250000 Co
0.250000 0.250000 0.250000 Co
0.250000 0.750000 0.750000 Co
0.750000 0.250000 0.250000 Ni
0.750000 0.750000 0.750000 Ni
0.250000 0.250000 0.750000 Ni
0.250000 0.750000 0.250000 Ni
