Li4 Co4 Ge4 Pt4
1.0
5.862186 0.000000 0.000000
-0.000000 5.862186 0.000000
0.000000 0.000000 5.862186
Li Co Ge Pt
4 4 4 4
direct
0.000000 0.000000 0.500000 Li
0.000000 0.500000 0.000000 Li
0.500000 0.000000 0.000000 Li
0.500000 0.500000 0.500000 Li
0.750000 0.250000 0.750000 Co
0.750000 0.750000 0.250000 Co
0.250000 0.250000 0.250000 Co
0.250000 0.750000 0.750000 Co
0.500000 0.000000 0.500000 Ge
0.500000 0.500000 0.000000 Ge
0.000000 0.000000 0.000000 Ge
0.000000 0.500000 0.500000 Ge
0.750000 0.250000 0.250000 Pt
0.750000 0.750000 0.750000 Pt
0.250000 0.250000 0.750000 Pt
0.250000 0.750000 0.250000 Pt
