Hf4 Fe4 Tc4 Sn4
1.0
6.382772 0.000000 0.000000
-0.000000 6.382772 0.000000
0.000000 0.000000 6.382772
Hf Fe Tc Sn
4 4 4 4
direct
0.500000 0.500000 0.500000 Hf
0.500000 0.000000 0.000000 Hf
0.000000 0.500000 0.000000 Hf
0.000000 0.000000 0.500000 Hf
0.750000 0.250000 0.750000 Fe
0.750000 0.750000 0.250000 Fe
0.250000 0.250000 0.250000 Fe
0.250000 0.750000 0.750000 Fe
0.750000 0.250000 0.250000 Tc
0.750000 0.750000 0.750000 Tc
0.250000 0.250000 0.750000 Tc
0.250000 0.750000 0.250000 Tc
0.500000 0.000000 0.500000 Sn
0.500000 0.500000 0.000000 Sn
0.000000 0.000000 0.000000 Sn
0.000000 0.500000 0.500000 Sn
