Be4 Co4 Si4 Tc4
1.0
5.607428 0.000000 0.000000
-0.000000 5.607428 0.000000
0.000000 0.000000 5.607428
Be Co Si Tc
4 4 4 4
direct
0.750000 0.250000 0.250000 Be
0.750000 0.750000 0.750000 Be
0.250000 0.250000 0.750000 Be
0.250000 0.750000 0.250000 Be
0.500000 0.500000 0.500000 Co
0.500000 0.000000 0.000000 Co
0.000000 0.500000 0.000000 Co
0.000000 0.000000 0.500000 Co
0.250000 0.250000 0.250000 Si
0.250000 0.750000 0.750000 Si
0.750000 0.250000 0.750000 Si
0.750000 0.750000 0.250000 Si
0.500000 0.500000 0.000000 Tc
0.500000 0.000000 0.500000 Tc
0.000000 0.500000 0.500000 Tc
0.000000 0.000000 0.000000 Tc
