Zn4 Cr4 Ga4 Rh4
1.0
6.067326 0.000000 0.000000
-0.000000 6.067326 0.000000
0.000000 0.000000 6.067326
Zn Cr Ga Rh
4 4 4 4
direct
0.000000 0.000000 0.500000 Zn
0.000000 0.500000 0.000000 Zn
0.500000 0.000000 0.000000 Zn
0.500000 0.500000 0.500000 Zn
0.750000 0.250000 0.750000 Cr
0.750000 0.750000 0.250000 Cr
0.250000 0.250000 0.250000 Cr
0.250000 0.750000 0.750000 Cr
0.500000 0.000000 0.500000 Ga
0.500000 0.500000 0.000000 Ga
0.000000 0.000000 0.000000 Ga
0.000000 0.500000 0.500000 Ga
0.750000 0.250000 0.250000 Rh
0.750000 0.750000 0.750000 Rh
0.250000 0.250000 0.750000 Rh
0.250000 0.750000 0.250000 Rh
