Mn4 In4 Co4 Ni4
1.0
5.925026 0.000000 0.000000
-0.000000 5.925026 0.000000
0.000000 0.000000 5.925026
Mn In Co Ni
4 4 4 4
direct
0.500000 0.500000 0.500000 Mn
0.500000 0.000000 0.000000 Mn
0.000000 0.500000 0.000000 Mn
0.000000 0.000000 0.500000 Mn
0.500000 0.500000 0.000000 In
0.500000 0.000000 0.500000 In
0.000000 0.500000 0.500000 In
0.000000 0.000000 0.000000 In
0.750000 0.250000 0.250000 Co
0.750000 0.750000 0.750000 Co
0.250000 0.250000 0.750000 Co
0.250000 0.750000 0.250000 Co
0.250000 0.250000 0.250000 Ni
0.250000 0.750000 0.750000 Ni
0.750000 0.250000 0.750000 Ni
0.750000 0.750000 0.250000 Ni
