Cr4 Fe4 Si4 Os4
1.0
5.791208 0.000000 0.000000
-0.000000 5.791208 0.000000
0.000000 0.000000 5.791208
Cr Fe Si Os
4 4 4 4
direct
0.500000 0.500000 0.500000 Cr
0.500000 0.000000 0.000000 Cr
0.000000 0.500000 0.000000 Cr
0.000000 0.000000 0.500000 Cr
0.750000 0.250000 0.750000 Fe
0.750000 0.750000 0.250000 Fe
0.250000 0.250000 0.250000 Fe
0.250000 0.750000 0.750000 Fe
0.500000 0.000000 0.500000 Si
0.500000 0.500000 0.000000 Si
0.000000 0.000000 0.000000 Si
0.000000 0.500000 0.500000 Si
0.750000 0.250000 0.250000 Os
0.750000 0.750000 0.750000 Os
0.250000 0.250000 0.750000 Os
0.250000 0.750000 0.250000 Os
