Ti4 Mn4 Ga4 Ir4
1.0
6.033814 0.000000 0.000000
-0.000000 6.033814 0.000000
0.000000 0.000000 6.033814
Ti Mn Ga Ir
4 4 4 4
direct
0.500000 0.500000 0.500000 Ti
0.500000 0.000000 0.000000 Ti
0.000000 0.500000 0.000000 Ti
0.000000 0.000000 0.500000 Ti
0.250000 0.750000 0.250000 Mn
0.250000 0.250000 0.750000 Mn
0.750000 0.750000 0.750000 Mn
0.750000 0.250000 0.250000 Mn
0.500000 0.500000 0.000000 Ga
0.500000 0.000000 0.500000 Ga
0.000000 0.500000 0.500000 Ga
0.000000 0.000000 0.000000 Ga
0.250000 0.250000 0.250000 Ir
0.250000 0.750000 0.750000 Ir
0.750000 0.250000 0.750000 Ir
0.750000 0.750000 0.250000 Ir
