Mn4 Zn4 Ni4 Pt4
1.0
6.002082 0.000000 0.000000
-0.000000 6.002082 0.000000
0.000000 0.000000 6.002082
Mn Zn Ni Pt
4 4 4 4
direct
0.750000 0.250000 0.250000 Mn
0.750000 0.750000 0.750000 Mn
0.250000 0.250000 0.750000 Mn
0.250000 0.750000 0.250000 Mn
0.250000 0.250000 0.250000 Zn
0.250000 0.750000 0.750000 Zn
0.750000 0.250000 0.750000 Zn
0.750000 0.750000 0.250000 Zn
0.500000 0.500000 0.500000 Ni
0.500000 0.000000 0.000000 Ni
0.000000 0.500000 0.000000 Ni
0.000000 0.000000 0.500000 Ni
0.500000 0.500000 0.000000 Pt
0.500000 0.000000 0.500000 Pt
0.000000 0.500000 0.500000 Pt
0.000000 0.000000 0.000000 Pt
