Sc4 Al4 Fe4 Ir4
1.0
6.144702 0.000000 0.000000
-0.000000 6.144702 0.000000
0.000000 0.000000 6.144702
Sc Al Fe Ir
4 4 4 4
direct
0.500000 0.000000 0.000000 Sc
0.500000 0.500000 0.500000 Sc
0.000000 0.000000 0.500000 Sc
0.000000 0.500000 0.000000 Sc
0.000000 0.000000 0.000000 Al
0.000000 0.500000 0.500000 Al
0.500000 0.000000 0.500000 Al
0.500000 0.500000 0.000000 Al
0.250000 0.250000 0.250000 Fe
0.250000 0.750000 0.750000 Fe
0.750000 0.250000 0.750000 Fe
0.750000 0.750000 0.250000 Fe
0.250000 0.250000 0.750000 Ir
0.250000 0.750000 0.250000 Ir
0.750000 0.250000 0.250000 Ir
0.750000 0.750000 0.750000 Ir
