Mn4 Be4 Si4 Ru4
1.0
5.659174 0.000000 0.000000
-0.000000 5.659174 0.000000
0.000000 0.000000 5.659174
Mn Be Si Ru
4 4 4 4
direct
0.500000 0.500000 0.500000 Mn
0.500000 0.000000 0.000000 Mn
0.000000 0.500000 0.000000 Mn
0.000000 0.000000 0.500000 Mn
0.750000 0.250000 0.250000 Be
0.750000 0.750000 0.750000 Be
0.250000 0.250000 0.750000 Be
0.250000 0.750000 0.250000 Be
0.250000 0.250000 0.250000 Si
0.250000 0.750000 0.750000 Si
0.750000 0.250000 0.750000 Si
0.750000 0.750000 0.250000 Si
0.500000 0.500000 0.000000 Ru
0.500000 0.000000 0.500000 Ru
0.000000 0.500000 0.500000 Ru
0.000000 0.000000 0.000000 Ru
