Li4 Mn4 Ni4 Sn4
1.0
6.080946 0.000000 0.000000
-0.000000 6.080946 0.000000
0.000000 0.000000 6.080946
Li Mn Ni Sn
4 4 4 4
direct
0.500000 0.500000 0.500000 Li
0.500000 0.000000 0.000000 Li
0.000000 0.500000 0.000000 Li
0.000000 0.000000 0.500000 Li
0.750000 0.250000 0.750000 Mn
0.750000 0.750000 0.250000 Mn
0.250000 0.250000 0.250000 Mn
0.250000 0.750000 0.750000 Mn
0.500000 0.000000 0.500000 Ni
0.500000 0.500000 0.000000 Ni
0.000000 0.000000 0.000000 Ni
0.000000 0.500000 0.500000 Ni
0.750000 0.250000 0.250000 Sn
0.750000 0.750000 0.750000 Sn
0.250000 0.250000 0.750000 Sn
0.250000 0.750000 0.250000 Sn
