Mn4 V4 Cr4 Ga4
1.0
5.877110 0.000000 0.000000
-0.000000 5.877110 0.000000
0.000000 0.000000 5.877110
Mn V Cr Ga
4 4 4 4
direct
0.500000 0.000000 0.000000 Mn
0.500000 0.500000 0.500000 Mn
0.000000 0.000000 0.500000 Mn
0.000000 0.500000 0.000000 Mn
0.250000 0.250000 0.250000 V
0.250000 0.750000 0.750000 V
0.750000 0.250000 0.750000 V
0.750000 0.750000 0.250000 V
0.000000 0.000000 0.000000 Cr
0.000000 0.500000 0.500000 Cr
0.500000 0.000000 0.500000 Cr
0.500000 0.500000 0.000000 Cr
0.250000 0.250000 0.750000 Ga
0.250000 0.750000 0.250000 Ga
0.750000 0.250000 0.250000 Ga
0.750000 0.750000 0.750000 Ga
