Zn4 Cr4 Ga4 Ir4
1.0
6.075586 0.000000 0.000000
-0.000000 6.075586 0.000000
0.000000 0.000000 6.075586
Zn Cr Ga Ir
4 4 4 4
direct
0.000000 0.000000 0.500000 Zn
0.000000 0.500000 0.000000 Zn
0.500000 0.000000 0.000000 Zn
0.500000 0.500000 0.500000 Zn
0.750000 0.250000 0.750000 Cr
0.750000 0.750000 0.250000 Cr
0.250000 0.250000 0.250000 Cr
0.250000 0.750000 0.750000 Cr
0.500000 0.000000 0.500000 Ga
0.500000 0.500000 0.000000 Ga
0.000000 0.000000 0.000000 Ga
0.000000 0.500000 0.500000 Ga
0.750000 0.250000 0.250000 Ir
0.750000 0.750000 0.750000 Ir
0.250000 0.250000 0.750000 Ir
0.250000 0.750000 0.250000 Ir
