Li4 Mn4 Ag4 Sn4
1.0
6.493616 0.000000 0.000000
-0.000000 6.493616 0.000000
0.000000 0.000000 6.493616
Li Mn Ag Sn
4 4 4 4
direct
0.500000 0.500000 0.000000 Li
0.500000 0.000000 0.500000 Li
0.000000 0.500000 0.500000 Li
0.000000 0.000000 0.000000 Li
0.500000 0.500000 0.500000 Mn
0.500000 0.000000 0.000000 Mn
0.000000 0.500000 0.000000 Mn
0.000000 0.000000 0.500000 Mn
0.750000 0.250000 0.250000 Ag
0.750000 0.750000 0.750000 Ag
0.250000 0.250000 0.750000 Ag
0.250000 0.750000 0.250000 Ag
0.250000 0.250000 0.250000 Sn
0.250000 0.750000 0.750000 Sn
0.750000 0.250000 0.750000 Sn
0.750000 0.750000 0.250000 Sn
