Zn4 Ga4 Co4 Ru4
1.0
5.912934 0.000000 0.000000
-0.000000 5.912934 0.000000
0.000000 0.000000 5.912934
Zn Ga Co Ru
4 4 4 4
direct
0.750000 0.250000 0.250000 Zn
0.750000 0.750000 0.750000 Zn
0.250000 0.250000 0.750000 Zn
0.250000 0.750000 0.250000 Zn
0.250000 0.250000 0.250000 Ga
0.250000 0.750000 0.750000 Ga
0.750000 0.250000 0.750000 Ga
0.750000 0.750000 0.250000 Ga
0.500000 0.500000 0.500000 Co
0.500000 0.000000 0.000000 Co
0.000000 0.500000 0.000000 Co
0.000000 0.000000 0.500000 Co
0.500000 0.500000 0.000000 Ru
0.500000 0.000000 0.500000 Ru
0.000000 0.500000 0.500000 Ru
0.000000 0.000000 0.000000 Ru
