Ti4 Zn4 Co4 Ni4
1.0
5.813082 0.000000 0.000000
-0.000000 5.813082 0.000000
0.000000 0.000000 5.813082
Ti Zn Co Ni
4 4 4 4
direct
0.750000 0.750000 0.750000 Ti
0.750000 0.250000 0.250000 Ti
0.250000 0.750000 0.250000 Ti
0.250000 0.250000 0.750000 Ti
0.750000 0.750000 0.250000 Zn
0.750000 0.250000 0.750000 Zn
0.250000 0.750000 0.750000 Zn
0.250000 0.250000 0.250000 Zn
0.000000 0.000000 0.000000 Co
0.000000 0.500000 0.500000 Co
0.500000 0.000000 0.500000 Co
0.500000 0.500000 0.000000 Co
0.500000 0.000000 0.000000 Ni
0.500000 0.500000 0.500000 Ni
0.000000 0.000000 0.500000 Ni
0.000000 0.500000 0.000000 Ni
