Li4 Mn4 Cu4 Rh4
1.0
5.897878 0.000000 0.000000
-0.000000 5.897878 0.000000
0.000000 0.000000 5.897878
Li Mn Cu Rh
4 4 4 4
direct
0.500000 0.500000 0.500000 Li
0.500000 0.000000 0.000000 Li
0.000000 0.500000 0.000000 Li
0.000000 0.000000 0.500000 Li
0.500000 0.000000 0.500000 Mn
0.500000 0.500000 0.000000 Mn
0.000000 0.000000 0.000000 Mn
0.000000 0.500000 0.500000 Mn
0.750000 0.250000 0.750000 Cu
0.750000 0.750000 0.250000 Cu
0.250000 0.250000 0.250000 Cu
0.250000 0.750000 0.750000 Cu
0.750000 0.250000 0.250000 Rh
0.750000 0.750000 0.750000 Rh
0.250000 0.250000 0.750000 Rh
0.250000 0.750000 0.250000 Rh
