Al4 Cr4 Os4 W4
1.0
6.090098 0.000000 0.000000
-0.000000 6.090098 0.000000
0.000000 0.000000 6.090098
Al Cr Os W
4 4 4 4
direct
0.000000 0.000000 0.000000 Al
0.000000 0.500000 0.500000 Al
0.500000 0.000000 0.500000 Al
0.500000 0.500000 0.000000 Al
0.250000 0.250000 0.250000 Cr
0.250000 0.750000 0.750000 Cr
0.750000 0.250000 0.750000 Cr
0.750000 0.750000 0.250000 Cr
0.250000 0.250000 0.750000 Os
0.250000 0.750000 0.250000 Os
0.750000 0.250000 0.250000 Os
0.750000 0.750000 0.750000 Os
0.000000 0.500000 0.000000 W
0.000000 0.000000 0.500000 W
0.500000 0.500000 0.500000 W
0.500000 0.000000 0.000000 W
