Li4 Mn4 Ga4 Pd4
1.0
6.046502 0.000000 0.000000
-0.000000 6.046502 0.000000
0.000000 0.000000 6.046502
Li Mn Ga Pd
4 4 4 4
direct
0.500000 0.000000 0.000000 Li
0.500000 0.500000 0.500000 Li
0.000000 0.000000 0.500000 Li
0.000000 0.500000 0.000000 Li
0.250000 0.250000 0.250000 Mn
0.250000 0.750000 0.750000 Mn
0.750000 0.250000 0.750000 Mn
0.750000 0.750000 0.250000 Mn
0.000000 0.000000 0.000000 Ga
0.000000 0.500000 0.500000 Ga
0.500000 0.000000 0.500000 Ga
0.500000 0.500000 0.000000 Ga
0.250000 0.250000 0.750000 Pd
0.250000 0.750000 0.250000 Pd
0.750000 0.250000 0.250000 Pd
0.750000 0.750000 0.750000 Pd
