Zr4 Zn4 Co4 Pt4
1.0
6.300512 0.000000 0.000000
-0.000000 6.300512 0.000000
0.000000 0.000000 6.300512
Zr Zn Co Pt
4 4 4 4
direct
0.250000 0.750000 0.250000 Zr
0.250000 0.250000 0.750000 Zr
0.750000 0.750000 0.750000 Zr
0.750000 0.250000 0.250000 Zr
0.250000 0.250000 0.250000 Zn
0.250000 0.750000 0.750000 Zn
0.750000 0.250000 0.750000 Zn
0.750000 0.750000 0.250000 Zn
0.500000 0.500000 0.500000 Co
0.500000 0.000000 0.000000 Co
0.000000 0.500000 0.000000 Co
0.000000 0.000000 0.500000 Co
0.500000 0.500000 0.000000 Pt
0.500000 0.000000 0.500000 Pt
0.000000 0.500000 0.500000 Pt
0.000000 0.000000 0.000000 Pt
