Al4 Fe4 Mo4 Os4
1.0
6.032254 0.000000 0.000000
-0.000000 6.032254 0.000000
0.000000 0.000000 6.032254
Al Fe Mo Os
4 4 4 4
direct
0.000000 0.000000 0.000000 Al
0.000000 0.500000 0.500000 Al
0.500000 0.000000 0.500000 Al
0.500000 0.500000 0.000000 Al
0.250000 0.250000 0.250000 Fe
0.250000 0.750000 0.750000 Fe
0.750000 0.250000 0.750000 Fe
0.750000 0.750000 0.250000 Fe
0.000000 0.500000 0.000000 Mo
0.000000 0.000000 0.500000 Mo
0.500000 0.500000 0.500000 Mo
0.500000 0.000000 0.000000 Mo
0.250000 0.250000 0.750000 Os
0.250000 0.750000 0.250000 Os
0.750000 0.250000 0.250000 Os
0.750000 0.750000 0.750000 Os
