Hf4 Al4 Co4 Pd4
1.0
6.227208 0.000000 0.000000
-0.000000 6.227208 0.000000
0.000000 0.000000 6.227208
Hf Al Co Pd
4 4 4 4
direct
0.500000 0.000000 0.000000 Hf
0.500000 0.500000 0.500000 Hf
0.000000 0.000000 0.500000 Hf
0.000000 0.500000 0.000000 Hf
0.000000 0.000000 0.000000 Al
0.000000 0.500000 0.500000 Al
0.500000 0.000000 0.500000 Al
0.500000 0.500000 0.000000 Al
0.250000 0.250000 0.250000 Co
0.250000 0.750000 0.750000 Co
0.750000 0.250000 0.750000 Co
0.750000 0.750000 0.250000 Co
0.250000 0.250000 0.750000 Pd
0.250000 0.750000 0.250000 Pd
0.750000 0.250000 0.250000 Pd
0.750000 0.750000 0.750000 Pd
