Li4 Mn4 Ge4 Rh4
1.0
5.956876 0.000000 0.000000
-0.000000 5.956876 0.000000
0.000000 0.000000 5.956876
Li Mn Ge Rh
4 4 4 4
direct
0.000000 0.500000 0.000000 Li
0.000000 0.000000 0.500000 Li
0.500000 0.500000 0.500000 Li
0.500000 0.000000 0.000000 Li
0.250000 0.250000 0.250000 Mn
0.250000 0.750000 0.750000 Mn
0.750000 0.250000 0.750000 Mn
0.750000 0.750000 0.250000 Mn
0.000000 0.000000 0.000000 Ge
0.000000 0.500000 0.500000 Ge
0.500000 0.000000 0.500000 Ge
0.500000 0.500000 0.000000 Ge
0.250000 0.250000 0.750000 Rh
0.250000 0.750000 0.250000 Rh
0.750000 0.250000 0.250000 Rh
0.750000 0.750000 0.750000 Rh
