Mn4 Be4 Al4 V4
1.0
5.681398 0.000000 0.000000
-0.000000 5.681398 0.000000
0.000000 0.000000 5.681398
Mn Be Al V
4 4 4 4
direct
0.500000 0.000000 0.500000 Mn
0.500000 0.500000 0.000000 Mn
0.000000 0.000000 0.000000 Mn
0.000000 0.500000 0.500000 Mn
0.500000 0.500000 0.500000 Be
0.500000 0.000000 0.000000 Be
0.000000 0.500000 0.000000 Be
0.000000 0.000000 0.500000 Be
0.750000 0.250000 0.250000 Al
0.750000 0.750000 0.750000 Al
0.250000 0.250000 0.750000 Al
0.250000 0.750000 0.250000 Al
0.750000 0.250000 0.750000 V
0.750000 0.750000 0.250000 V
0.250000 0.250000 0.250000 V
0.250000 0.750000 0.750000 V
