Ti4 Co4 Ge4 Ir4
1.0
6.049332 0.000000 0.000000
-0.000000 6.049332 0.000000
0.000000 0.000000 6.049332
Ti Co Ge Ir
4 4 4 4
direct
0.500000 0.500000 0.500000 Ti
0.500000 0.000000 0.000000 Ti
0.000000 0.500000 0.000000 Ti
0.000000 0.000000 0.500000 Ti
0.750000 0.250000 0.750000 Co
0.750000 0.750000 0.250000 Co
0.250000 0.250000 0.250000 Co
0.250000 0.750000 0.750000 Co
0.500000 0.000000 0.500000 Ge
0.500000 0.500000 0.000000 Ge
0.000000 0.000000 0.000000 Ge
0.000000 0.500000 0.500000 Ge
0.750000 0.250000 0.250000 Ir
0.750000 0.750000 0.750000 Ir
0.250000 0.250000 0.750000 Ir
0.250000 0.750000 0.250000 Ir
