Nb4 In4 Co4 Ir4
1.0
6.323332 0.000000 0.000000
-0.000000 6.323332 0.000000
0.000000 0.000000 6.323332
Nb In Co Ir
4 4 4 4
direct
0.250000 0.750000 0.250000 Nb
0.250000 0.250000 0.750000 Nb
0.750000 0.750000 0.750000 Nb
0.750000 0.250000 0.250000 Nb
0.250000 0.250000 0.250000 In
0.250000 0.750000 0.750000 In
0.750000 0.250000 0.750000 In
0.750000 0.750000 0.250000 In
0.500000 0.500000 0.500000 Co
0.500000 0.000000 0.000000 Co
0.000000 0.500000 0.000000 Co
0.000000 0.000000 0.500000 Co
0.500000 0.500000 0.000000 Ir
0.500000 0.000000 0.500000 Ir
0.000000 0.500000 0.500000 Ir
0.000000 0.000000 0.000000 Ir
