Mn4 In4 Ni4 Pd4
1.0
6.243076 0.000000 0.000000
-0.000000 6.243076 0.000000
0.000000 0.000000 6.243076
Mn In Ni Pd
4 4 4 4
direct
0.000000 0.500000 0.000000 Mn
0.000000 0.000000 0.500000 Mn
0.500000 0.500000 0.500000 Mn
0.500000 0.000000 0.000000 Mn
0.000000 0.000000 0.000000 In
0.000000 0.500000 0.500000 In
0.500000 0.000000 0.500000 In
0.500000 0.500000 0.000000 In
0.250000 0.250000 0.250000 Ni
0.250000 0.750000 0.750000 Ni
0.750000 0.250000 0.750000 Ni
0.750000 0.750000 0.250000 Ni
0.250000 0.250000 0.750000 Pd
0.250000 0.750000 0.250000 Pd
0.750000 0.250000 0.250000 Pd
0.750000 0.750000 0.750000 Pd
