Mg4 In4 Co4 Ni4
1.0
6.140172 0.000000 0.000000
-0.000000 6.140172 0.000000
0.000000 0.000000 6.140172
Mg In Co Ni
4 4 4 4
direct
0.250000 0.750000 0.250000 Mg
0.250000 0.250000 0.750000 Mg
0.750000 0.750000 0.750000 Mg
0.750000 0.250000 0.250000 Mg
0.250000 0.250000 0.250000 In
0.250000 0.750000 0.750000 In
0.750000 0.250000 0.750000 In
0.750000 0.750000 0.250000 In
0.500000 0.500000 0.000000 Co
0.500000 0.000000 0.500000 Co
0.000000 0.500000 0.500000 Co
0.000000 0.000000 0.000000 Co
0.500000 0.500000 0.500000 Ni
0.500000 0.000000 0.000000 Ni
0.000000 0.500000 0.000000 Ni
0.000000 0.000000 0.500000 Ni
