Sc4 Co4 Ge4 Ir4
1.0
6.154064 0.000000 0.000000
-0.000000 6.154064 0.000000
0.000000 0.000000 6.154064
Sc Co Ge Ir
4 4 4 4
direct
0.000000 0.000000 0.500000 Sc
0.000000 0.500000 0.000000 Sc
0.500000 0.000000 0.000000 Sc
0.500000 0.500000 0.500000 Sc
0.750000 0.250000 0.750000 Co
0.750000 0.750000 0.250000 Co
0.250000 0.250000 0.250000 Co
0.250000 0.750000 0.750000 Co
0.500000 0.000000 0.500000 Ge
0.500000 0.500000 0.000000 Ge
0.000000 0.000000 0.000000 Ge
0.000000 0.500000 0.500000 Ge
0.750000 0.250000 0.250000 Ir
0.750000 0.750000 0.750000 Ir
0.250000 0.250000 0.750000 Ir
0.250000 0.750000 0.250000 Ir
