Zr4 Mn4 Al4 Ir4
1.0
6.251124 0.000000 0.000000
-0.000000 6.251124 0.000000
0.000000 0.000000 6.251124
Zr Mn Al Ir
4 4 4 4
direct
0.000000 0.500000 0.000000 Zr
0.000000 0.000000 0.500000 Zr
0.500000 0.500000 0.500000 Zr
0.500000 0.000000 0.000000 Zr
0.250000 0.250000 0.250000 Mn
0.250000 0.750000 0.750000 Mn
0.750000 0.250000 0.750000 Mn
0.750000 0.750000 0.250000 Mn
0.000000 0.000000 0.000000 Al
0.000000 0.500000 0.500000 Al
0.500000 0.000000 0.500000 Al
0.500000 0.500000 0.000000 Al
0.250000 0.250000 0.750000 Ir
0.250000 0.750000 0.250000 Ir
0.750000 0.250000 0.250000 Ir
0.750000 0.750000 0.750000 Ir
