Mn4 Nb4 Zn4 Ru4
1.0
6.129210 0.000000 0.000000
-0.000000 6.129210 0.000000
0.000000 0.000000 6.129210
Mn Nb Zn Ru
4 4 4 4
direct
0.750000 0.250000 0.750000 Mn
0.750000 0.750000 0.250000 Mn
0.250000 0.250000 0.250000 Mn
0.250000 0.750000 0.750000 Mn
0.500000 0.500000 0.500000 Nb
0.500000 0.000000 0.000000 Nb
0.000000 0.500000 0.000000 Nb
0.000000 0.000000 0.500000 Nb
0.500000 0.000000 0.500000 Zn
0.500000 0.500000 0.000000 Zn
0.000000 0.000000 0.000000 Zn
0.000000 0.500000 0.500000 Zn
0.750000 0.250000 0.250000 Ru
0.750000 0.750000 0.750000 Ru
0.250000 0.250000 0.750000 Ru
0.250000 0.750000 0.250000 Ru
