Ti4 Co4 Ge4 Ru4
1.0
5.963160 0.000000 0.000000
-0.000000 5.963160 0.000000
0.000000 0.000000 5.963160
Ti Co Ge Ru
4 4 4 4
direct
0.500000 0.000000 0.000000 Ti
0.500000 0.500000 0.500000 Ti
0.000000 0.000000 0.500000 Ti
0.000000 0.500000 0.000000 Ti
0.250000 0.250000 0.250000 Co
0.250000 0.750000 0.750000 Co
0.750000 0.250000 0.750000 Co
0.750000 0.750000 0.250000 Co
0.000000 0.000000 0.000000 Ge
0.000000 0.500000 0.500000 Ge
0.500000 0.000000 0.500000 Ge
0.500000 0.500000 0.000000 Ge
0.250000 0.250000 0.750000 Ru
0.250000 0.750000 0.250000 Ru
0.750000 0.250000 0.250000 Ru
0.750000 0.750000 0.750000 Ru
