Zr4 Zn4 Co4 Ni4
1.0
6.070182 0.000000 0.000000
-0.000000 6.070182 0.000000
0.000000 0.000000 6.070182
Zr Zn Co Ni
4 4 4 4
direct
0.750000 0.250000 0.250000 Zr
0.750000 0.750000 0.750000 Zr
0.250000 0.250000 0.750000 Zr
0.250000 0.750000 0.250000 Zr
0.250000 0.250000 0.250000 Zn
0.250000 0.750000 0.750000 Zn
0.750000 0.250000 0.750000 Zn
0.750000 0.750000 0.250000 Zn
0.500000 0.500000 0.500000 Co
0.500000 0.000000 0.000000 Co
0.000000 0.500000 0.000000 Co
0.000000 0.000000 0.500000 Co
0.500000 0.500000 0.000000 Ni
0.500000 0.000000 0.500000 Ni
0.000000 0.500000 0.500000 Ni
0.000000 0.000000 0.000000 Ni
