Ta4 Mn4 Zn4 Os4
1.0
6.142688 0.000000 0.000000
-0.000000 6.142688 0.000000
0.000000 0.000000 6.142688
Ta Mn Zn Os
4 4 4 4
direct
0.000000 0.000000 0.500000 Ta
0.000000 0.500000 0.000000 Ta
0.500000 0.000000 0.000000 Ta
0.500000 0.500000 0.500000 Ta
0.750000 0.250000 0.750000 Mn
0.750000 0.750000 0.250000 Mn
0.250000 0.250000 0.250000 Mn
0.250000 0.750000 0.750000 Mn
0.500000 0.000000 0.500000 Zn
0.500000 0.500000 0.000000 Zn
0.000000 0.000000 0.000000 Zn
0.000000 0.500000 0.500000 Zn
0.750000 0.250000 0.250000 Os
0.750000 0.750000 0.750000 Os
0.250000 0.250000 0.750000 Os
0.250000 0.750000 0.250000 Os
