Mn4 Al4 Fe4 Cu4
1.0
5.797868 0.000000 0.000000
-0.000000 5.797868 0.000000
0.000000 0.000000 5.797868
Mn Al Fe Cu
4 4 4 4
direct
0.750000 0.250000 0.750000 Mn
0.750000 0.750000 0.250000 Mn
0.250000 0.250000 0.250000 Mn
0.250000 0.750000 0.750000 Mn
0.750000 0.250000 0.250000 Al
0.750000 0.750000 0.750000 Al
0.250000 0.250000 0.750000 Al
0.250000 0.750000 0.250000 Al
0.500000 0.000000 0.500000 Fe
0.500000 0.500000 0.000000 Fe
0.000000 0.000000 0.000000 Fe
0.000000 0.500000 0.500000 Fe
0.500000 0.500000 0.500000 Cu
0.500000 0.000000 0.000000 Cu
0.000000 0.500000 0.000000 Cu
0.000000 0.000000 0.500000 Cu
