Li4 Mn4 Al4 Ni4
1.0
5.761692 0.000000 0.000000
-0.000000 5.761692 0.000000
0.000000 0.000000 5.761692
Li Mn Al Ni
4 4 4 4
direct
0.750000 0.250000 0.250000 Li
0.750000 0.750000 0.750000 Li
0.250000 0.250000 0.750000 Li
0.250000 0.750000 0.250000 Li
0.500000 0.500000 0.500000 Mn
0.500000 0.000000 0.000000 Mn
0.000000 0.500000 0.000000 Mn
0.000000 0.000000 0.500000 Mn
0.000000 0.000000 0.000000 Al
0.000000 0.500000 0.500000 Al
0.500000 0.000000 0.500000 Al
0.500000 0.500000 0.000000 Al
0.250000 0.250000 0.250000 Ni
0.250000 0.750000 0.750000 Ni
0.750000 0.250000 0.750000 Ni
0.750000 0.750000 0.250000 Ni
