Al4 Zn4 Co4 Pt4
1.0
5.958184 0.000000 0.000000
-0.000000 5.958184 0.000000
0.000000 0.000000 5.958184
Al Zn Co Pt
4 4 4 4
direct
0.000000 0.000000 0.000000 Al
0.000000 0.500000 0.500000 Al
0.500000 0.000000 0.500000 Al
0.500000 0.500000 0.000000 Al
0.500000 0.000000 0.000000 Zn
0.500000 0.500000 0.500000 Zn
0.000000 0.000000 0.500000 Zn
0.000000 0.500000 0.000000 Zn
0.250000 0.250000 0.250000 Co
0.250000 0.750000 0.750000 Co
0.750000 0.250000 0.750000 Co
0.750000 0.750000 0.250000 Co
0.250000 0.250000 0.750000 Pt
0.250000 0.750000 0.250000 Pt
0.750000 0.250000 0.250000 Pt
0.750000 0.750000 0.750000 Pt
