Ti4 Cr4 Si4 Ir4
1.0
5.972664 0.000000 0.000000
-0.000000 5.972664 0.000000
0.000000 0.000000 5.972664
Ti Cr Si Ir
4 4 4 4
direct
0.750000 0.250000 0.250000 Ti
0.750000 0.750000 0.750000 Ti
0.250000 0.250000 0.750000 Ti
0.250000 0.750000 0.250000 Ti
0.500000 0.500000 0.500000 Cr
0.500000 0.000000 0.000000 Cr
0.000000 0.500000 0.000000 Cr
0.000000 0.000000 0.500000 Cr
0.250000 0.250000 0.250000 Si
0.250000 0.750000 0.750000 Si
0.750000 0.250000 0.750000 Si
0.750000 0.750000 0.250000 Si
0.500000 0.500000 0.000000 Ir
0.500000 0.000000 0.500000 Ir
0.000000 0.500000 0.500000 Ir
0.000000 0.000000 0.000000 Ir
