Ti4 Al4 Cr4 Os4
1.0
6.117548 0.000000 0.000000
-0.000000 6.117548 0.000000
0.000000 0.000000 6.117548
Ti Al Cr Os
4 4 4 4
direct
0.000000 0.500000 0.000000 Ti
0.000000 0.000000 0.500000 Ti
0.500000 0.500000 0.500000 Ti
0.500000 0.000000 0.000000 Ti
0.000000 0.000000 0.000000 Al
0.000000 0.500000 0.500000 Al
0.500000 0.000000 0.500000 Al
0.500000 0.500000 0.000000 Al
0.250000 0.250000 0.250000 Cr
0.250000 0.750000 0.750000 Cr
0.750000 0.250000 0.750000 Cr
0.750000 0.750000 0.250000 Cr
0.250000 0.250000 0.750000 Os
0.250000 0.750000 0.250000 Os
0.750000 0.250000 0.250000 Os
0.750000 0.750000 0.750000 Os
