Mn4 Fe4 Co4 Sb4
1.0
5.948204 0.000000 0.000000
-0.000000 5.948204 0.000000
0.000000 0.000000 5.948204
Mn Fe Co Sb
4 4 4 4
direct
0.250000 0.250000 0.250000 Mn
0.250000 0.750000 0.750000 Mn
0.750000 0.250000 0.750000 Mn
0.750000 0.750000 0.250000 Mn
0.500000 0.000000 0.000000 Fe
0.500000 0.500000 0.500000 Fe
0.000000 0.000000 0.500000 Fe
0.000000 0.500000 0.000000 Fe
0.000000 0.000000 0.000000 Co
0.000000 0.500000 0.500000 Co
0.500000 0.000000 0.500000 Co
0.500000 0.500000 0.000000 Co
0.250000 0.250000 0.750000 Sb
0.250000 0.750000 0.250000 Sb
0.750000 0.250000 0.250000 Sb
0.750000 0.750000 0.750000 Sb
