Sc4 Co4 Sn4 Ir4
1.0
6.370376 0.000000 0.000000
-0.000000 6.370376 0.000000
0.000000 0.000000 6.370376
Sc Co Sn Ir
4 4 4 4
direct
0.750000 0.250000 0.250000 Sc
0.750000 0.750000 0.750000 Sc
0.250000 0.250000 0.750000 Sc
0.250000 0.750000 0.250000 Sc
0.500000 0.500000 0.500000 Co
0.500000 0.000000 0.000000 Co
0.000000 0.500000 0.000000 Co
0.000000 0.000000 0.500000 Co
0.250000 0.250000 0.250000 Sn
0.250000 0.750000 0.750000 Sn
0.750000 0.250000 0.750000 Sn
0.750000 0.750000 0.250000 Sn
0.500000 0.500000 0.000000 Ir
0.500000 0.000000 0.500000 Ir
0.000000 0.500000 0.500000 Ir
0.000000 0.000000 0.000000 Ir
