Ta4 Al4 Fe4 Tc4
1.0
6.101856 0.000000 0.000000
-0.000000 6.101856 0.000000
0.000000 0.000000 6.101856
Ta Al Fe Tc
4 4 4 4
direct
0.000000 0.500000 0.000000 Ta
0.000000 0.000000 0.500000 Ta
0.500000 0.500000 0.500000 Ta
0.500000 0.000000 0.000000 Ta
0.000000 0.000000 0.000000 Al
0.000000 0.500000 0.500000 Al
0.500000 0.000000 0.500000 Al
0.500000 0.500000 0.000000 Al
0.250000 0.250000 0.250000 Fe
0.250000 0.750000 0.750000 Fe
0.750000 0.250000 0.750000 Fe
0.750000 0.750000 0.250000 Fe
0.250000 0.250000 0.750000 Tc
0.250000 0.750000 0.250000 Tc
0.750000 0.250000 0.250000 Tc
0.750000 0.750000 0.750000 Tc
