Mn4 Al4 Tc4 W4
1.0
6.056626 0.000000 0.000000
-0.000000 6.056626 0.000000
0.000000 0.000000 6.056626
Mn Al Tc W
4 4 4 4
direct
0.250000 0.250000 0.250000 Mn
0.250000 0.750000 0.750000 Mn
0.750000 0.250000 0.750000 Mn
0.750000 0.750000 0.250000 Mn
0.000000 0.000000 0.000000 Al
0.000000 0.500000 0.500000 Al
0.500000 0.000000 0.500000 Al
0.500000 0.500000 0.000000 Al
0.250000 0.250000 0.750000 Tc
0.250000 0.750000 0.250000 Tc
0.750000 0.250000 0.250000 Tc
0.750000 0.750000 0.750000 Tc
0.500000 0.000000 0.000000 W
0.500000 0.500000 0.500000 W
0.000000 0.000000 0.500000 W
0.000000 0.500000 0.000000 W
