Mg4 Mn4 Zn4 Pt4
1.0
6.253908 0.000000 0.000000
-0.000000 6.253908 0.000000
0.000000 0.000000 6.253908
Mg Mn Zn Pt
4 4 4 4
direct
0.750000 0.250000 0.250000 Mg
0.750000 0.750000 0.750000 Mg
0.250000 0.250000 0.750000 Mg
0.250000 0.750000 0.250000 Mg
0.750000 0.250000 0.750000 Mn
0.750000 0.750000 0.250000 Mn
0.250000 0.250000 0.250000 Mn
0.250000 0.750000 0.750000 Mn
0.500000 0.000000 0.500000 Zn
0.500000 0.500000 0.000000 Zn
0.000000 0.000000 0.000000 Zn
0.000000 0.500000 0.500000 Zn
0.000000 0.000000 0.500000 Pt
0.000000 0.500000 0.000000 Pt
0.500000 0.000000 0.000000 Pt
0.500000 0.500000 0.500000 Pt
