Mn4 Be4 Ga4 Ru4
1.0
5.817980 0.000000 0.000000
-0.000000 5.817980 0.000000
0.000000 0.000000 5.817980
Mn Be Ga Ru
4 4 4 4
direct
0.250000 0.250000 0.250000 Mn
0.250000 0.750000 0.750000 Mn
0.750000 0.250000 0.750000 Mn
0.750000 0.750000 0.250000 Mn
0.500000 0.000000 0.000000 Be
0.500000 0.500000 0.500000 Be
0.000000 0.000000 0.500000 Be
0.000000 0.500000 0.000000 Be
0.000000 0.000000 0.000000 Ga
0.000000 0.500000 0.500000 Ga
0.500000 0.000000 0.500000 Ga
0.500000 0.500000 0.000000 Ga
0.250000 0.250000 0.750000 Ru
0.250000 0.750000 0.250000 Ru
0.750000 0.250000 0.250000 Ru
0.750000 0.750000 0.750000 Ru
