Li4 Fe4 Co4 Si4
1.0
5.473082 0.000000 0.000000
-0.000000 5.473082 0.000000
0.000000 0.000000 5.473082
Li Fe Co Si
4 4 4 4
direct
0.500000 0.500000 0.500000 Li
0.500000 0.000000 0.000000 Li
0.000000 0.500000 0.000000 Li
0.000000 0.000000 0.500000 Li
0.250000 0.250000 0.250000 Fe
0.250000 0.750000 0.750000 Fe
0.750000 0.250000 0.750000 Fe
0.750000 0.750000 0.250000 Fe
0.750000 0.250000 0.250000 Co
0.750000 0.750000 0.750000 Co
0.250000 0.250000 0.750000 Co
0.250000 0.750000 0.250000 Co
0.500000 0.500000 0.000000 Si
0.500000 0.000000 0.500000 Si
0.000000 0.500000 0.500000 Si
0.000000 0.000000 0.000000 Si
