Ti4 Mn4 Zn4 Pt4
1.0
6.137890 0.000000 0.000000
-0.000000 6.137890 0.000000
0.000000 0.000000 6.137890
Ti Mn Zn Pt
4 4 4 4
direct
0.250000 0.750000 0.250000 Ti
0.250000 0.250000 0.750000 Ti
0.750000 0.750000 0.750000 Ti
0.750000 0.250000 0.250000 Ti
0.500000 0.500000 0.500000 Mn
0.500000 0.000000 0.000000 Mn
0.000000 0.500000 0.000000 Mn
0.000000 0.000000 0.500000 Mn
0.250000 0.250000 0.250000 Zn
0.250000 0.750000 0.750000 Zn
0.750000 0.250000 0.750000 Zn
0.750000 0.750000 0.250000 Zn
0.500000 0.500000 0.000000 Pt
0.500000 0.000000 0.500000 Pt
0.000000 0.500000 0.500000 Pt
0.000000 0.000000 0.000000 Pt
