Ti4 Cr4 Ga4 Fe4
1.0
5.942666 0.000000 0.000000
-0.000000 5.942666 0.000000
0.000000 0.000000 5.942666
Ti Cr Ga Fe
4 4 4 4
direct
0.250000 0.250000 0.250000 Ti
0.250000 0.750000 0.750000 Ti
0.750000 0.250000 0.750000 Ti
0.750000 0.750000 0.250000 Ti
0.000000 0.000000 0.000000 Cr
0.000000 0.500000 0.500000 Cr
0.500000 0.000000 0.500000 Cr
0.500000 0.500000 0.000000 Cr
0.250000 0.250000 0.750000 Ga
0.250000 0.750000 0.250000 Ga
0.750000 0.250000 0.250000 Ga
0.750000 0.750000 0.750000 Ga
0.500000 0.000000 0.000000 Fe
0.500000 0.500000 0.500000 Fe
0.000000 0.000000 0.500000 Fe
0.000000 0.500000 0.000000 Fe
