Hf4 Cr4 Tc4 Sn4
1.0
6.499888 0.000000 0.000000
-0.000000 6.499888 0.000000
0.000000 0.000000 6.499888
Hf Cr Tc Sn
4 4 4 4
direct
0.250000 0.750000 0.250000 Hf
0.250000 0.250000 0.750000 Hf
0.750000 0.750000 0.750000 Hf
0.750000 0.250000 0.250000 Hf
0.500000 0.500000 0.500000 Cr
0.500000 0.000000 0.000000 Cr
0.000000 0.500000 0.000000 Cr
0.000000 0.000000 0.500000 Cr
0.500000 0.500000 0.000000 Tc
0.500000 0.000000 0.500000 Tc
0.000000 0.500000 0.500000 Tc
0.000000 0.000000 0.000000 Tc
0.250000 0.250000 0.250000 Sn
0.250000 0.750000 0.750000 Sn
0.750000 0.250000 0.750000 Sn
0.750000 0.750000 0.250000 Sn
