Al4 Cr4 Fe4 W4
1.0
5.917256 0.000000 0.000000
-0.000000 5.917256 0.000000
0.000000 0.000000 5.917256
Al Cr Fe W
4 4 4 4
direct
0.000000 0.000000 0.000000 Al
0.000000 0.500000 0.500000 Al
0.500000 0.000000 0.500000 Al
0.500000 0.500000 0.000000 Al
0.250000 0.250000 0.250000 Cr
0.250000 0.750000 0.750000 Cr
0.750000 0.250000 0.750000 Cr
0.750000 0.750000 0.250000 Cr
0.250000 0.250000 0.750000 Fe
0.250000 0.750000 0.250000 Fe
0.750000 0.250000 0.250000 Fe
0.750000 0.750000 0.750000 Fe
0.000000 0.500000 0.000000 W
0.000000 0.000000 0.500000 W
0.500000 0.500000 0.500000 W
0.500000 0.000000 0.000000 W
