Nb4 Al4 Cr4 Re4
1.0
6.248358 0.000000 0.000000
-0.000000 6.248358 0.000000
0.000000 0.000000 6.248358
Nb Al Cr Re
4 4 4 4
direct
0.000000 0.500000 0.000000 Nb
0.000000 0.000000 0.500000 Nb
0.500000 0.500000 0.500000 Nb
0.500000 0.000000 0.000000 Nb
0.000000 0.000000 0.000000 Al
0.000000 0.500000 0.500000 Al
0.500000 0.000000 0.500000 Al
0.500000 0.500000 0.000000 Al
0.250000 0.250000 0.250000 Cr
0.250000 0.750000 0.750000 Cr
0.750000 0.250000 0.750000 Cr
0.750000 0.750000 0.250000 Cr
0.250000 0.250000 0.750000 Re
0.250000 0.750000 0.250000 Re
0.750000 0.250000 0.250000 Re
0.750000 0.750000 0.750000 Re
