Ti4 Al4 Fe4 Ni4
1.0
5.832078 0.000000 0.000000
-0.000000 5.832078 0.000000
0.000000 0.000000 5.832078
Ti Al Fe Ni
4 4 4 4
direct
0.750000 0.250000 0.750000 Ti
0.750000 0.750000 0.250000 Ti
0.250000 0.250000 0.250000 Ti
0.250000 0.750000 0.750000 Ti
0.750000 0.250000 0.250000 Al
0.750000 0.750000 0.750000 Al
0.250000 0.250000 0.750000 Al
0.250000 0.750000 0.250000 Al
0.500000 0.000000 0.500000 Fe
0.500000 0.500000 0.000000 Fe
0.000000 0.000000 0.000000 Fe
0.000000 0.500000 0.500000 Fe
0.500000 0.500000 0.500000 Ni
0.500000 0.000000 0.000000 Ni
0.000000 0.500000 0.000000 Ni
0.000000 0.000000 0.500000 Ni
