Ti4 Fe4 Ge4 Rh4
1.0
5.991798 0.000000 0.000000
-0.000000 5.991798 0.000000
0.000000 0.000000 5.991798
Ti Fe Ge Rh
4 4 4 4
direct
0.500000 0.500000 0.500000 Ti
0.500000 0.000000 0.000000 Ti
0.000000 0.500000 0.000000 Ti
0.000000 0.000000 0.500000 Ti
0.750000 0.250000 0.750000 Fe
0.750000 0.750000 0.250000 Fe
0.250000 0.250000 0.250000 Fe
0.250000 0.750000 0.750000 Fe
0.500000 0.000000 0.500000 Ge
0.500000 0.500000 0.000000 Ge
0.000000 0.000000 0.000000 Ge
0.000000 0.500000 0.500000 Ge
0.750000 0.250000 0.250000 Rh
0.750000 0.750000 0.750000 Rh
0.250000 0.250000 0.750000 Rh
0.250000 0.750000 0.250000 Rh
