V4 Ga4 Fe4 Ni4
1.0
5.753698 0.000000 0.000000
-0.000000 5.753698 0.000000
0.000000 0.000000 5.753698
V Ga Fe Ni
4 4 4 4
direct
0.250000 0.250000 0.250000 V
0.250000 0.750000 0.750000 V
0.750000 0.250000 0.750000 V
0.750000 0.750000 0.250000 V
0.250000 0.250000 0.750000 Ga
0.250000 0.750000 0.250000 Ga
0.750000 0.250000 0.250000 Ga
0.750000 0.750000 0.750000 Ga
0.000000 0.000000 0.000000 Fe
0.000000 0.500000 0.500000 Fe
0.500000 0.000000 0.500000 Fe
0.500000 0.500000 0.000000 Fe
0.000000 0.500000 0.000000 Ni
0.000000 0.000000 0.500000 Ni
0.500000 0.500000 0.500000 Ni
0.500000 0.000000 0.000000 Ni
