Cr4 Fe4 Tc4 Ge4
1.0
5.877920 0.000000 0.000000
-0.000000 5.877920 0.000000
0.000000 0.000000 5.877920
Cr Fe Tc Ge
4 4 4 4
direct
0.750000 0.250000 0.250000 Cr
0.750000 0.750000 0.750000 Cr
0.250000 0.250000 0.750000 Cr
0.250000 0.750000 0.250000 Cr
0.500000 0.500000 0.500000 Fe
0.500000 0.000000 0.000000 Fe
0.000000 0.500000 0.000000 Fe
0.000000 0.000000 0.500000 Fe
0.500000 0.500000 0.000000 Tc
0.500000 0.000000 0.500000 Tc
0.000000 0.500000 0.500000 Tc
0.000000 0.000000 0.000000 Tc
0.250000 0.250000 0.250000 Ge
0.250000 0.750000 0.750000 Ge
0.750000 0.250000 0.750000 Ge
0.750000 0.750000 0.250000 Ge
