Sc4 Ti4 Zn4 Cu4
1.0
6.394517 0.000000 0.000000
-0.000000 6.394517 0.000000
0.000000 0.000000 6.394517
Sc Ti Zn Cu
4 4 4 4
direct
0.250000 0.750000 0.750000 Sc
0.250000 0.250000 0.250000 Sc
0.750000 0.750000 0.250000 Sc
0.750000 0.250000 0.750000 Sc
0.250000 0.250000 0.750000 Ti
0.250000 0.750000 0.250000 Ti
0.750000 0.250000 0.250000 Ti
0.750000 0.750000 0.750000 Ti
0.000000 0.000000 0.000000 Zn
0.000000 0.500000 0.500000 Zn
0.500000 0.000000 0.500000 Zn
0.500000 0.500000 0.000000 Zn
0.000000 0.000000 0.500000 Cu
0.000000 0.500000 0.000000 Cu
0.500000 0.000000 0.000000 Cu
0.500000 0.500000 0.500000 Cu
