Mn4 Al4 Cr4 Mo4
1.0
5.948718 0.000000 0.000000
-0.000000 5.948718 0.000000
0.000000 0.000000 5.948718
Mn Al Cr Mo
4 4 4 4
direct
0.250000 0.250000 0.750000 Mn
0.250000 0.750000 0.250000 Mn
0.750000 0.250000 0.250000 Mn
0.750000 0.750000 0.750000 Mn
0.000000 0.000000 0.000000 Al
0.000000 0.500000 0.500000 Al
0.500000 0.000000 0.500000 Al
0.500000 0.500000 0.000000 Al
0.250000 0.250000 0.250000 Cr
0.250000 0.750000 0.750000 Cr
0.750000 0.250000 0.750000 Cr
0.750000 0.750000 0.250000 Cr
0.000000 0.500000 0.000000 Mo
0.000000 0.000000 0.500000 Mo
0.500000 0.500000 0.500000 Mo
0.500000 0.000000 0.000000 Mo
