Hf4 In4 Co4 Pt4
1.0
6.456368 0.000000 0.000000
-0.000000 6.456368 0.000000
0.000000 0.000000 6.456368
Hf In Co Pt
4 4 4 4
direct
0.000000 0.000000 0.500000 Hf
0.000000 0.500000 0.000000 Hf
0.500000 0.000000 0.000000 Hf
0.500000 0.500000 0.500000 Hf
0.500000 0.000000 0.500000 In
0.500000 0.500000 0.000000 In
0.000000 0.000000 0.000000 In
0.000000 0.500000 0.500000 In
0.750000 0.250000 0.750000 Co
0.750000 0.750000 0.250000 Co
0.250000 0.250000 0.250000 Co
0.250000 0.750000 0.750000 Co
0.750000 0.250000 0.250000 Pt
0.750000 0.750000 0.750000 Pt
0.250000 0.250000 0.750000 Pt
0.250000 0.750000 0.250000 Pt
