Mn4 Cr4 Ga4 Co4
1.0
5.699820 0.000000 0.000000
-0.000000 5.699820 0.000000
0.000000 0.000000 5.699820
Mn Cr Ga Co
4 4 4 4
direct
0.250000 0.250000 0.250000 Mn
0.250000 0.750000 0.750000 Mn
0.750000 0.250000 0.750000 Mn
0.750000 0.750000 0.250000 Mn
0.500000 0.000000 0.000000 Cr
0.500000 0.500000 0.500000 Cr
0.000000 0.000000 0.500000 Cr
0.000000 0.500000 0.000000 Cr
0.250000 0.250000 0.750000 Ga
0.250000 0.750000 0.250000 Ga
0.750000 0.250000 0.250000 Ga
0.750000 0.750000 0.750000 Ga
0.000000 0.000000 0.000000 Co
0.000000 0.500000 0.500000 Co
0.500000 0.000000 0.500000 Co
0.500000 0.500000 0.000000 Co
