Cr4 Ga4 Tc4 Mo4
1.0
6.163596 0.000000 0.000000
-0.000000 6.163596 0.000000
0.000000 0.000000 6.163596
Cr Ga Tc Mo
4 4 4 4
direct
0.750000 0.250000 0.750000 Cr
0.750000 0.750000 0.250000 Cr
0.250000 0.250000 0.250000 Cr
0.250000 0.750000 0.750000 Cr
0.500000 0.000000 0.500000 Ga
0.500000 0.500000 0.000000 Ga
0.000000 0.000000 0.000000 Ga
0.000000 0.500000 0.500000 Ga
0.750000 0.250000 0.250000 Tc
0.750000 0.750000 0.750000 Tc
0.250000 0.250000 0.750000 Tc
0.250000 0.750000 0.250000 Tc
0.500000 0.500000 0.500000 Mo
0.500000 0.000000 0.000000 Mo
0.000000 0.500000 0.000000 Mo
0.000000 0.000000 0.500000 Mo
