Li4 Mn4 Sn4 Au4
1.0
6.475400 0.000000 0.000000
-0.000000 6.475400 0.000000
0.000000 0.000000 6.475400
Li Mn Sn Au
4 4 4 4
direct
0.250000 0.250000 0.750000 Li
0.250000 0.750000 0.250000 Li
0.750000 0.250000 0.250000 Li
0.750000 0.750000 0.750000 Li
0.250000 0.250000 0.250000 Mn
0.250000 0.750000 0.750000 Mn
0.750000 0.250000 0.750000 Mn
0.750000 0.750000 0.250000 Mn
0.000000 0.000000 0.000000 Sn
0.000000 0.500000 0.500000 Sn
0.500000 0.000000 0.500000 Sn
0.500000 0.500000 0.000000 Sn
0.500000 0.000000 0.000000 Au
0.500000 0.500000 0.500000 Au
0.000000 0.000000 0.500000 Au
0.000000 0.500000 0.000000 Au
