Ti4 Zn4 Co4 Pd4
1.0
6.023914 0.000000 0.000000
-0.000000 6.023914 0.000000
0.000000 0.000000 6.023914
Ti Zn Co Pd
4 4 4 4
direct
0.500000 0.500000 0.500000 Ti
0.500000 0.000000 0.000000 Ti
0.000000 0.500000 0.000000 Ti
0.000000 0.000000 0.500000 Ti
0.500000 0.000000 0.500000 Zn
0.500000 0.500000 0.000000 Zn
0.000000 0.000000 0.000000 Zn
0.000000 0.500000 0.500000 Zn
0.750000 0.250000 0.750000 Co
0.750000 0.750000 0.250000 Co
0.250000 0.250000 0.250000 Co
0.250000 0.750000 0.750000 Co
0.750000 0.250000 0.250000 Pd
0.750000 0.750000 0.750000 Pd
0.250000 0.250000 0.750000 Pd
0.250000 0.750000 0.250000 Pd
