Nb4 In4 Co4 Ru4
1.0
6.292740 0.000000 0.000000
-0.000000 6.292740 0.000000
0.000000 0.000000 6.292740
Nb In Co Ru
4 4 4 4
direct
0.000000 0.000000 0.500000 Nb
0.000000 0.500000 0.000000 Nb
0.500000 0.000000 0.000000 Nb
0.500000 0.500000 0.500000 Nb
0.500000 0.000000 0.500000 In
0.500000 0.500000 0.000000 In
0.000000 0.000000 0.000000 In
0.000000 0.500000 0.500000 In
0.750000 0.250000 0.750000 Co
0.750000 0.750000 0.250000 Co
0.250000 0.250000 0.250000 Co
0.250000 0.750000 0.750000 Co
0.750000 0.250000 0.250000 Ru
0.750000 0.750000 0.750000 Ru
0.250000 0.250000 0.750000 Ru
0.250000 0.750000 0.250000 Ru
