Mn4 Al4 Zn4 Ru4
1.0
6.017284 0.000000 0.000000
-0.000000 6.017284 0.000000
0.000000 0.000000 6.017284
Mn Al Zn Ru
4 4 4 4
direct
0.250000 0.250000 0.250000 Mn
0.250000 0.750000 0.750000 Mn
0.750000 0.250000 0.750000 Mn
0.750000 0.750000 0.250000 Mn
0.000000 0.000000 0.000000 Al
0.000000 0.500000 0.500000 Al
0.500000 0.000000 0.500000 Al
0.500000 0.500000 0.000000 Al
0.500000 0.000000 0.000000 Zn
0.500000 0.500000 0.500000 Zn
0.000000 0.000000 0.500000 Zn
0.000000 0.500000 0.000000 Zn
0.250000 0.250000 0.750000 Ru
0.250000 0.750000 0.250000 Ru
0.750000 0.250000 0.250000 Ru
0.750000 0.750000 0.750000 Ru
