Mn4 Tc4 Ni4 Ge4
1.0
5.940110 0.000000 0.000000
-0.000000 5.940110 0.000000
0.000000 0.000000 5.940110
Mn Tc Ni Ge
4 4 4 4
direct
0.000000 0.500000 0.000000 Mn
0.000000 0.000000 0.500000 Mn
0.500000 0.500000 0.500000 Mn
0.500000 0.000000 0.000000 Mn
0.250000 0.250000 0.750000 Tc
0.250000 0.750000 0.250000 Tc
0.750000 0.250000 0.250000 Tc
0.750000 0.750000 0.750000 Tc
0.250000 0.250000 0.250000 Ni
0.250000 0.750000 0.750000 Ni
0.750000 0.250000 0.750000 Ni
0.750000 0.750000 0.250000 Ni
0.000000 0.000000 0.000000 Ge
0.000000 0.500000 0.500000 Ge
0.500000 0.000000 0.500000 Ge
0.500000 0.500000 0.000000 Ge
