Zn4 Co4 Ge4 Ir4
1.0
5.950134 0.000000 0.000000
-0.000000 5.950134 0.000000
0.000000 0.000000 5.950134
Zn Co Ge Ir
4 4 4 4
direct
0.750000 0.250000 0.250000 Zn
0.750000 0.750000 0.750000 Zn
0.250000 0.250000 0.750000 Zn
0.250000 0.750000 0.250000 Zn
0.500000 0.500000 0.500000 Co
0.500000 0.000000 0.000000 Co
0.000000 0.500000 0.000000 Co
0.000000 0.000000 0.500000 Co
0.250000 0.250000 0.250000 Ge
0.250000 0.750000 0.750000 Ge
0.750000 0.250000 0.750000 Ge
0.750000 0.750000 0.250000 Ge
0.500000 0.500000 0.000000 Ir
0.500000 0.000000 0.500000 Ir
0.000000 0.500000 0.500000 Ir
0.000000 0.000000 0.000000 Ir
