Cr4 Ga4 Tc4 Ni4
1.0
5.924584 0.000000 0.000000
-0.000000 5.924584 0.000000
0.000000 0.000000 5.924584
Cr Ga Tc Ni
4 4 4 4
direct
0.500000 0.500000 0.500000 Cr
0.500000 0.000000 0.000000 Cr
0.000000 0.500000 0.000000 Cr
0.000000 0.000000 0.500000 Cr
0.500000 0.000000 0.500000 Ga
0.500000 0.500000 0.000000 Ga
0.000000 0.000000 0.000000 Ga
0.000000 0.500000 0.500000 Ga
0.750000 0.250000 0.250000 Tc
0.750000 0.750000 0.750000 Tc
0.250000 0.250000 0.750000 Tc
0.250000 0.750000 0.250000 Tc
0.750000 0.250000 0.750000 Ni
0.750000 0.750000 0.250000 Ni
0.250000 0.250000 0.250000 Ni
0.250000 0.750000 0.750000 Ni
