Ti4 Ga4 Co4 Rh4
1.0
5.986322 0.000000 0.000000
-0.000000 5.986322 0.000000
0.000000 0.000000 5.986322
Ti Ga Co Rh
4 4 4 4
direct
0.750000 0.250000 0.250000 Ti
0.750000 0.750000 0.750000 Ti
0.250000 0.250000 0.750000 Ti
0.250000 0.750000 0.250000 Ti
0.250000 0.250000 0.250000 Ga
0.250000 0.750000 0.750000 Ga
0.750000 0.250000 0.750000 Ga
0.750000 0.750000 0.250000 Ga
0.500000 0.500000 0.500000 Co
0.500000 0.000000 0.000000 Co
0.000000 0.500000 0.000000 Co
0.000000 0.000000 0.500000 Co
0.500000 0.500000 0.000000 Rh
0.500000 0.000000 0.500000 Rh
0.000000 0.500000 0.500000 Rh
0.000000 0.000000 0.000000 Rh
