Ti4 Mn4 Al4 Re4
1.0
6.123018 0.000000 0.000000
-0.000000 6.123018 0.000000
0.000000 0.000000 6.123018
Ti Mn Al Re
4 4 4 4
direct
0.000000 0.500000 0.000000 Ti
0.000000 0.000000 0.500000 Ti
0.500000 0.500000 0.500000 Ti
0.500000 0.000000 0.000000 Ti
0.250000 0.250000 0.250000 Mn
0.250000 0.750000 0.750000 Mn
0.750000 0.250000 0.750000 Mn
0.750000 0.750000 0.250000 Mn
0.000000 0.000000 0.000000 Al
0.000000 0.500000 0.500000 Al
0.500000 0.000000 0.500000 Al
0.500000 0.500000 0.000000 Al
0.250000 0.250000 0.750000 Re
0.250000 0.750000 0.250000 Re
0.750000 0.250000 0.250000 Re
0.750000 0.750000 0.750000 Re
