Hf4 Al4 Cr4 Os4
1.0
6.300916 0.000000 0.000000
-0.000000 6.300916 0.000000
0.000000 0.000000 6.300916
Hf Al Cr Os
4 4 4 4
direct
0.000000 0.500000 0.000000 Hf
0.000000 0.000000 0.500000 Hf
0.500000 0.500000 0.500000 Hf
0.500000 0.000000 0.000000 Hf
0.000000 0.000000 0.000000 Al
0.000000 0.500000 0.500000 Al
0.500000 0.000000 0.500000 Al
0.500000 0.500000 0.000000 Al
0.250000 0.250000 0.250000 Cr
0.250000 0.750000 0.750000 Cr
0.750000 0.250000 0.750000 Cr
0.750000 0.750000 0.250000 Cr
0.250000 0.250000 0.750000 Os
0.250000 0.750000 0.250000 Os
0.750000 0.250000 0.250000 Os
0.750000 0.750000 0.750000 Os
