Be4 Co4 Si4 Ni4
1.0
5.385142 0.000000 0.000000
-0.000000 5.385142 0.000000
0.000000 0.000000 5.385142
Be Co Si Ni
4 4 4 4
direct
0.500000 0.500000 0.500000 Be
0.500000 0.000000 0.000000 Be
0.000000 0.500000 0.000000 Be
0.000000 0.000000 0.500000 Be
0.250000 0.250000 0.250000 Co
0.250000 0.750000 0.750000 Co
0.750000 0.250000 0.750000 Co
0.750000 0.750000 0.250000 Co
0.500000 0.500000 0.000000 Si
0.500000 0.000000 0.500000 Si
0.000000 0.500000 0.500000 Si
0.000000 0.000000 0.000000 Si
0.250000 0.750000 0.250000 Ni
0.250000 0.250000 0.750000 Ni
0.750000 0.750000 0.750000 Ni
0.750000 0.250000 0.250000 Ni
