Mn4 Al4 Cu4 Au4
1.0
6.171426 0.000000 0.000000
-0.000000 6.171426 0.000000
0.000000 0.000000 6.171426
Mn Al Cu Au
4 4 4 4
direct
0.500000 0.000000 0.000000 Mn
0.500000 0.500000 0.500000 Mn
0.000000 0.000000 0.500000 Mn
0.000000 0.500000 0.000000 Mn
0.000000 0.000000 0.000000 Al
0.000000 0.500000 0.500000 Al
0.500000 0.000000 0.500000 Al
0.500000 0.500000 0.000000 Al
0.250000 0.250000 0.250000 Cu
0.250000 0.750000 0.750000 Cu
0.750000 0.250000 0.750000 Cu
0.750000 0.750000 0.250000 Cu
0.250000 0.250000 0.750000 Au
0.250000 0.750000 0.250000 Au
0.750000 0.250000 0.250000 Au
0.750000 0.750000 0.750000 Au
