Cr4 Fe4 Ge4 Ru4
1.0
5.872588 0.000000 0.000000
-0.000000 5.872588 0.000000
0.000000 0.000000 5.872588
Cr Fe Ge Ru
4 4 4 4
direct
0.750000 0.250000 0.250000 Cr
0.750000 0.750000 0.750000 Cr
0.250000 0.250000 0.750000 Cr
0.250000 0.750000 0.250000 Cr
0.500000 0.500000 0.500000 Fe
0.500000 0.000000 0.000000 Fe
0.000000 0.500000 0.000000 Fe
0.000000 0.000000 0.500000 Fe
0.250000 0.250000 0.250000 Ge
0.250000 0.750000 0.750000 Ge
0.750000 0.250000 0.750000 Ge
0.750000 0.750000 0.250000 Ge
0.500000 0.500000 0.000000 Ru
0.500000 0.000000 0.500000 Ru
0.000000 0.500000 0.500000 Ru
0.000000 0.000000 0.000000 Ru
