Hf4 Cr4 Ga4 Ru4
1.0
6.287732 0.000000 0.000000
-0.000000 6.287732 0.000000
0.000000 0.000000 6.287732
Hf Cr Ga Ru
4 4 4 4
direct
0.500000 0.500000 0.500000 Hf
0.500000 0.000000 0.000000 Hf
0.000000 0.500000 0.000000 Hf
0.000000 0.000000 0.500000 Hf
0.750000 0.250000 0.750000 Cr
0.750000 0.750000 0.250000 Cr
0.250000 0.250000 0.250000 Cr
0.250000 0.750000 0.750000 Cr
0.500000 0.000000 0.500000 Ga
0.500000 0.500000 0.000000 Ga
0.000000 0.000000 0.000000 Ga
0.000000 0.500000 0.500000 Ga
0.750000 0.250000 0.250000 Ru
0.750000 0.750000 0.750000 Ru
0.250000 0.250000 0.750000 Ru
0.250000 0.750000 0.250000 Ru
