Hf4 Al4 Fe4 Cu4
1.0
6.117318 0.000000 0.000000
-0.000000 6.117318 0.000000
0.000000 0.000000 6.117318
Hf Al Fe Cu
4 4 4 4
direct
0.000000 0.500000 0.000000 Hf
0.000000 0.000000 0.500000 Hf
0.500000 0.500000 0.500000 Hf
0.500000 0.000000 0.000000 Hf
0.000000 0.000000 0.000000 Al
0.000000 0.500000 0.500000 Al
0.500000 0.000000 0.500000 Al
0.500000 0.500000 0.000000 Al
0.250000 0.250000 0.750000 Fe
0.250000 0.750000 0.250000 Fe
0.750000 0.250000 0.250000 Fe
0.750000 0.750000 0.750000 Fe
0.250000 0.250000 0.250000 Cu
0.250000 0.750000 0.750000 Cu
0.750000 0.250000 0.750000 Cu
0.750000 0.750000 0.250000 Cu
