Cr4 Fe4 Co4 Ge4
1.0
5.716648 0.000000 0.000000
-0.000000 5.716648 0.000000
0.000000 0.000000 5.716648
Cr Fe Co Ge
4 4 4 4
direct
0.250000 0.250000 0.250000 Cr
0.250000 0.750000 0.750000 Cr
0.750000 0.250000 0.750000 Cr
0.750000 0.750000 0.250000 Cr
0.500000 0.000000 0.000000 Fe
0.500000 0.500000 0.500000 Fe
0.000000 0.000000 0.500000 Fe
0.000000 0.500000 0.000000 Fe
0.000000 0.000000 0.000000 Co
0.000000 0.500000 0.500000 Co
0.500000 0.000000 0.500000 Co
0.500000 0.500000 0.000000 Co
0.250000 0.250000 0.750000 Ge
0.250000 0.750000 0.250000 Ge
0.750000 0.250000 0.250000 Ge
0.750000 0.750000 0.750000 Ge
