Nb4 Zn4 Co4 Rh4
1.0
6.091502 0.000000 0.000000
-0.000000 6.091502 0.000000
0.000000 0.000000 6.091502
Nb Zn Co Rh
4 4 4 4
direct
0.000000 0.000000 0.500000 Nb
0.000000 0.500000 0.000000 Nb
0.500000 0.000000 0.000000 Nb
0.500000 0.500000 0.500000 Nb
0.500000 0.000000 0.500000 Zn
0.500000 0.500000 0.000000 Zn
0.000000 0.000000 0.000000 Zn
0.000000 0.500000 0.500000 Zn
0.750000 0.250000 0.750000 Co
0.750000 0.750000 0.250000 Co
0.250000 0.250000 0.250000 Co
0.250000 0.750000 0.750000 Co
0.750000 0.250000 0.250000 Rh
0.750000 0.750000 0.750000 Rh
0.250000 0.250000 0.750000 Rh
0.250000 0.750000 0.250000 Rh
