Ga4 Fe4 Mo4 Ru4
1.0
6.019602 0.000000 0.000000
-0.000000 6.019602 0.000000
0.000000 0.000000 6.019602
Ga Fe Mo Ru
4 4 4 4
direct
0.500000 0.000000 0.500000 Ga
0.500000 0.500000 0.000000 Ga
0.000000 0.000000 0.000000 Ga
0.000000 0.500000 0.500000 Ga
0.750000 0.250000 0.750000 Fe
0.750000 0.750000 0.250000 Fe
0.250000 0.250000 0.250000 Fe
0.250000 0.750000 0.750000 Fe
0.000000 0.000000 0.500000 Mo
0.000000 0.500000 0.000000 Mo
0.500000 0.000000 0.000000 Mo
0.500000 0.500000 0.500000 Mo
0.750000 0.250000 0.250000 Ru
0.750000 0.750000 0.750000 Ru
0.250000 0.250000 0.750000 Ru
0.250000 0.750000 0.250000 Ru
