Ti4 Mn4 Al4 Co4
1.0
5.834714 0.000000 0.000000
-0.000000 5.834714 0.000000
0.000000 0.000000 5.834714
Ti Mn Al Co
4 4 4 4
direct
0.750000 0.250000 0.750000 Ti
0.750000 0.750000 0.250000 Ti
0.250000 0.250000 0.250000 Ti
0.250000 0.750000 0.750000 Ti
0.500000 0.000000 0.500000 Mn
0.500000 0.500000 0.000000 Mn
0.000000 0.000000 0.000000 Mn
0.000000 0.500000 0.500000 Mn
0.750000 0.250000 0.250000 Al
0.750000 0.750000 0.750000 Al
0.250000 0.250000 0.750000 Al
0.250000 0.750000 0.250000 Al
0.500000 0.500000 0.500000 Co
0.500000 0.000000 0.000000 Co
0.000000 0.500000 0.000000 Co
0.000000 0.000000 0.500000 Co
