Ti4 Al4 Cr4 Fe4
1.0
5.950474 0.000000 0.000000
-0.000000 5.950474 0.000000
0.000000 0.000000 5.950474
Ti Al Cr Fe
4 4 4 4
direct
0.750000 0.250000 0.750000 Ti
0.750000 0.750000 0.250000 Ti
0.250000 0.250000 0.250000 Ti
0.250000 0.750000 0.750000 Ti
0.750000 0.250000 0.250000 Al
0.750000 0.750000 0.750000 Al
0.250000 0.250000 0.750000 Al
0.250000 0.750000 0.250000 Al
0.500000 0.000000 0.500000 Cr
0.500000 0.500000 0.000000 Cr
0.000000 0.000000 0.000000 Cr
0.000000 0.500000 0.500000 Cr
0.000000 0.000000 0.500000 Fe
0.000000 0.500000 0.000000 Fe
0.500000 0.000000 0.000000 Fe
0.500000 0.500000 0.500000 Fe
