Mn4 Al4 Cu4 Pt4
1.0
6.058336 0.000000 0.000000
-0.000000 6.058336 0.000000
0.000000 0.000000 6.058336
Mn Al Cu Pt
4 4 4 4
direct
0.000000 0.500000 0.000000 Mn
0.000000 0.000000 0.500000 Mn
0.500000 0.500000 0.500000 Mn
0.500000 0.000000 0.000000 Mn
0.000000 0.000000 0.000000 Al
0.000000 0.500000 0.500000 Al
0.500000 0.000000 0.500000 Al
0.500000 0.500000 0.000000 Al
0.250000 0.250000 0.250000 Cu
0.250000 0.750000 0.750000 Cu
0.750000 0.250000 0.750000 Cu
0.750000 0.750000 0.250000 Cu
0.250000 0.250000 0.750000 Pt
0.250000 0.750000 0.250000 Pt
0.750000 0.250000 0.250000 Pt
0.750000 0.750000 0.750000 Pt
