Y4 Sc4 In4 Hg4
1.0
7.578252 0.000000 0.000000
-0.000000 7.578252 0.000000
0.000000 0.000000 7.578252
Y Sc In Hg
4 4 4 4
direct
0.250000 0.250000 0.250000 Y
0.250000 0.750000 0.750000 Y
0.750000 0.250000 0.750000 Y
0.750000 0.750000 0.250000 Y
0.250000 0.250000 0.750000 Sc
0.250000 0.750000 0.250000 Sc
0.750000 0.250000 0.250000 Sc
0.750000 0.750000 0.750000 Sc
0.000000 0.500000 0.000000 In
0.000000 0.000000 0.500000 In
0.500000 0.500000 0.500000 In
0.500000 0.000000 0.000000 In
0.000000 0.000000 0.000000 Hg
0.000000 0.500000 0.500000 Hg
0.500000 0.000000 0.500000 Hg
0.500000 0.500000 0.000000 Hg
