Li4 Mn4 As4 Pd4
1.0
6.137742 0.000000 0.000000
-0.000000 6.137742 0.000000
0.000000 0.000000 6.137742
Li Mn As Pd
4 4 4 4
direct
0.250000 0.250000 0.750000 Li
0.250000 0.750000 0.250000 Li
0.750000 0.250000 0.250000 Li
0.750000 0.750000 0.750000 Li
0.250000 0.250000 0.250000 Mn
0.250000 0.750000 0.750000 Mn
0.750000 0.250000 0.750000 Mn
0.750000 0.750000 0.250000 Mn
0.000000 0.000000 0.000000 As
0.000000 0.500000 0.500000 As
0.500000 0.000000 0.500000 As
0.500000 0.500000 0.000000 As
0.500000 0.000000 0.000000 Pd
0.500000 0.500000 0.500000 Pd
0.000000 0.000000 0.500000 Pd
0.000000 0.500000 0.000000 Pd
