Hf4 Fe4 Co4 Sn4
1.0
6.215892 0.000000 0.000000
-0.000000 6.215892 0.000000
0.000000 0.000000 6.215892
Hf Fe Co Sn
4 4 4 4
direct
0.000000 0.000000 0.500000 Hf
0.000000 0.500000 0.000000 Hf
0.500000 0.000000 0.000000 Hf
0.500000 0.500000 0.500000 Hf
0.750000 0.250000 0.250000 Fe
0.750000 0.750000 0.750000 Fe
0.250000 0.250000 0.750000 Fe
0.250000 0.750000 0.250000 Fe
0.750000 0.250000 0.750000 Co
0.750000 0.750000 0.250000 Co
0.250000 0.250000 0.250000 Co
0.250000 0.750000 0.750000 Co
0.500000 0.000000 0.500000 Sn
0.500000 0.500000 0.000000 Sn
0.000000 0.000000 0.000000 Sn
0.000000 0.500000 0.500000 Sn
