Mn4 Cu4 Rh4 Au4
1.0
6.143722 0.000000 0.000000
-0.000000 6.143722 0.000000
0.000000 0.000000 6.143722
Mn Cu Rh Au
4 4 4 4
direct
0.250000 0.250000 0.750000 Mn
0.250000 0.750000 0.250000 Mn
0.750000 0.250000 0.250000 Mn
0.750000 0.750000 0.750000 Mn
0.250000 0.250000 0.250000 Cu
0.250000 0.750000 0.750000 Cu
0.750000 0.250000 0.750000 Cu
0.750000 0.750000 0.250000 Cu
0.500000 0.000000 0.000000 Rh
0.500000 0.500000 0.500000 Rh
0.000000 0.000000 0.500000 Rh
0.000000 0.500000 0.000000 Rh
0.000000 0.000000 0.000000 Au
0.000000 0.500000 0.500000 Au
0.500000 0.000000 0.500000 Au
0.500000 0.500000 0.000000 Au
