Mn4 V4 Cr4 Ge4
1.0
5.827958 0.000000 0.000000
-0.000000 5.827958 0.000000
0.000000 0.000000 5.827958
Mn V Cr Ge
4 4 4 4
direct
0.000000 0.500000 0.000000 Mn
0.000000 0.000000 0.500000 Mn
0.500000 0.500000 0.500000 Mn
0.500000 0.000000 0.000000 Mn
0.250000 0.250000 0.250000 V
0.250000 0.750000 0.750000 V
0.750000 0.250000 0.750000 V
0.750000 0.750000 0.250000 V
0.000000 0.000000 0.000000 Cr
0.000000 0.500000 0.500000 Cr
0.500000 0.000000 0.500000 Cr
0.500000 0.500000 0.000000 Cr
0.250000 0.250000 0.750000 Ge
0.250000 0.750000 0.250000 Ge
0.750000 0.250000 0.250000 Ge
0.750000 0.750000 0.750000 Ge
