Zn4 Co4 Ni4 Sn4
1.0
6.022730 0.000000 0.000000
-0.000000 6.022730 0.000000
0.000000 0.000000 6.022730
Zn Co Ni Sn
4 4 4 4
direct
0.250000 0.250000 0.250000 Zn
0.250000 0.750000 0.750000 Zn
0.750000 0.250000 0.750000 Zn
0.750000 0.750000 0.250000 Zn
0.000000 0.000000 0.000000 Co
0.000000 0.500000 0.500000 Co
0.500000 0.000000 0.500000 Co
0.500000 0.500000 0.000000 Co
0.000000 0.500000 0.000000 Ni
0.000000 0.000000 0.500000 Ni
0.500000 0.500000 0.500000 Ni
0.500000 0.000000 0.000000 Ni
0.250000 0.250000 0.750000 Sn
0.250000 0.750000 0.250000 Sn
0.750000 0.250000 0.250000 Sn
0.750000 0.750000 0.750000 Sn
