Ti4 Cr4 Ga4 Ru4
1.0
6.108360 0.000000 0.000000
-0.000000 6.108360 0.000000
0.000000 0.000000 6.108360
Ti Cr Ga Ru
4 4 4 4
direct
0.500000 0.000000 0.000000 Ti
0.500000 0.500000 0.500000 Ti
0.000000 0.000000 0.500000 Ti
0.000000 0.500000 0.000000 Ti
0.250000 0.250000 0.250000 Cr
0.250000 0.750000 0.750000 Cr
0.750000 0.250000 0.750000 Cr
0.750000 0.750000 0.250000 Cr
0.000000 0.000000 0.000000 Ga
0.000000 0.500000 0.500000 Ga
0.500000 0.000000 0.500000 Ga
0.500000 0.500000 0.000000 Ga
0.250000 0.250000 0.750000 Ru
0.250000 0.750000 0.250000 Ru
0.750000 0.250000 0.250000 Ru
0.750000 0.750000 0.750000 Ru
