Al4 V4 Cr4 Ru4
1.0
5.984860 0.000000 0.000000
-0.000000 5.984860 0.000000
0.000000 0.000000 5.984860
Al V Cr Ru
4 4 4 4
direct
0.000000 0.000000 0.000000 Al
0.000000 0.500000 0.500000 Al
0.500000 0.000000 0.500000 Al
0.500000 0.500000 0.000000 Al
0.500000 0.000000 0.000000 V
0.500000 0.500000 0.500000 V
0.000000 0.000000 0.500000 V
0.000000 0.500000 0.000000 V
0.250000 0.250000 0.250000 Cr
0.250000 0.750000 0.750000 Cr
0.750000 0.250000 0.750000 Cr
0.750000 0.750000 0.250000 Cr
0.250000 0.250000 0.750000 Ru
0.250000 0.750000 0.250000 Ru
0.750000 0.250000 0.250000 Ru
0.750000 0.750000 0.750000 Ru
