Al4 Fe4 Co4 Ir4
1.0
5.882952 0.000000 0.000000
-0.000000 5.882952 0.000000
0.000000 0.000000 5.882952
Al Fe Co Ir
4 4 4 4
direct
0.000000 0.000000 0.000000 Al
0.000000 0.500000 0.500000 Al
0.500000 0.000000 0.500000 Al
0.500000 0.500000 0.000000 Al
0.500000 0.000000 0.000000 Fe
0.500000 0.500000 0.500000 Fe
0.000000 0.000000 0.500000 Fe
0.000000 0.500000 0.000000 Fe
0.250000 0.250000 0.250000 Co
0.250000 0.750000 0.750000 Co
0.750000 0.250000 0.750000 Co
0.750000 0.750000 0.250000 Co
0.250000 0.250000 0.750000 Ir
0.250000 0.750000 0.250000 Ir
0.750000 0.250000 0.250000 Ir
0.750000 0.750000 0.750000 Ir
