V4 Ga4 Co4 Ni4
1.0
5.764464 0.000000 0.000000
-0.000000 5.764464 0.000000
0.000000 0.000000 5.764464
V Ga Co Ni
4 4 4 4
direct
0.250000 0.250000 0.250000 V
0.250000 0.750000 0.750000 V
0.750000 0.250000 0.750000 V
0.750000 0.750000 0.250000 V
0.250000 0.250000 0.750000 Ga
0.250000 0.750000 0.250000 Ga
0.750000 0.250000 0.250000 Ga
0.750000 0.750000 0.750000 Ga
0.000000 0.000000 0.000000 Co
0.000000 0.500000 0.500000 Co
0.500000 0.000000 0.500000 Co
0.500000 0.500000 0.000000 Co
0.500000 0.000000 0.000000 Ni
0.500000 0.500000 0.500000 Ni
0.000000 0.000000 0.500000 Ni
0.000000 0.500000 0.000000 Ni
