Mn4 Cr4 Fe4 Ge4
1.0
5.693884 0.000000 0.000000
-0.000000 5.693884 0.000000
0.000000 0.000000 5.693884
Mn Cr Fe Ge
4 4 4 4
direct
0.250000 0.250000 0.750000 Mn
0.250000 0.750000 0.250000 Mn
0.750000 0.250000 0.250000 Mn
0.750000 0.750000 0.750000 Mn
0.000000 0.000000 0.500000 Cr
0.000000 0.500000 0.000000 Cr
0.500000 0.000000 0.000000 Cr
0.500000 0.500000 0.500000 Cr
0.250000 0.750000 0.750000 Fe
0.250000 0.250000 0.250000 Fe
0.750000 0.750000 0.250000 Fe
0.750000 0.250000 0.750000 Fe
0.000000 0.000000 0.000000 Ge
0.000000 0.500000 0.500000 Ge
0.500000 0.000000 0.500000 Ge
0.500000 0.500000 0.000000 Ge
