Ta4 Zn4 Co4 Ni4
1.0
5.930452 0.000000 0.000000
-0.000000 5.930452 0.000000
0.000000 0.000000 5.930452
Ta Zn Co Ni
4 4 4 4
direct
0.500000 0.500000 0.500000 Ta
0.500000 0.000000 0.000000 Ta
0.000000 0.500000 0.000000 Ta
0.000000 0.000000 0.500000 Ta
0.500000 0.000000 0.500000 Zn
0.500000 0.500000 0.000000 Zn
0.000000 0.000000 0.000000 Zn
0.000000 0.500000 0.500000 Zn
0.750000 0.250000 0.750000 Co
0.750000 0.750000 0.250000 Co
0.250000 0.250000 0.250000 Co
0.250000 0.750000 0.750000 Co
0.750000 0.250000 0.250000 Ni
0.750000 0.750000 0.750000 Ni
0.250000 0.250000 0.750000 Ni
0.250000 0.750000 0.250000 Ni
