Li4 Zr4 Ga4 Co4
1.0
6.110826 0.000000 0.000000
-0.000000 6.110826 0.000000
0.000000 0.000000 6.110826
Li Zr Ga Co
4 4 4 4
direct
0.750000 0.250000 0.250000 Li
0.750000 0.750000 0.750000 Li
0.250000 0.250000 0.750000 Li
0.250000 0.750000 0.250000 Li
0.000000 0.000000 0.500000 Zr
0.000000 0.500000 0.000000 Zr
0.500000 0.000000 0.000000 Zr
0.500000 0.500000 0.500000 Zr
0.500000 0.000000 0.500000 Ga
0.500000 0.500000 0.000000 Ga
0.000000 0.000000 0.000000 Ga
0.000000 0.500000 0.500000 Ga
0.750000 0.250000 0.750000 Co
0.750000 0.750000 0.250000 Co
0.250000 0.250000 0.250000 Co
0.250000 0.750000 0.750000 Co
