Mn4 Al4 V4 Cr4
1.0
5.880852 0.000000 0.000000
-0.000000 5.880852 0.000000
0.000000 0.000000 5.880852
Mn Al V Cr
4 4 4 4
direct
0.250000 0.750000 0.250000 Mn
0.250000 0.250000 0.750000 Mn
0.750000 0.750000 0.750000 Mn
0.750000 0.250000 0.250000 Mn
0.500000 0.500000 0.000000 Al
0.500000 0.000000 0.500000 Al
0.000000 0.500000 0.500000 Al
0.000000 0.000000 0.000000 Al
0.500000 0.500000 0.500000 V
0.500000 0.000000 0.000000 V
0.000000 0.500000 0.000000 V
0.000000 0.000000 0.500000 V
0.250000 0.250000 0.250000 Cr
0.250000 0.750000 0.750000 Cr
0.750000 0.250000 0.750000 Cr
0.750000 0.750000 0.250000 Cr
