Ti4 Co4 Sn4 Ir4
1.0
6.260838 0.000000 0.000000
-0.000000 6.260838 0.000000
0.000000 0.000000 6.260838
Ti Co Sn Ir
4 4 4 4
direct
0.500000 0.500000 0.500000 Ti
0.500000 0.000000 0.000000 Ti
0.000000 0.500000 0.000000 Ti
0.000000 0.000000 0.500000 Ti
0.750000 0.250000 0.750000 Co
0.750000 0.750000 0.250000 Co
0.250000 0.250000 0.250000 Co
0.250000 0.750000 0.750000 Co
0.500000 0.000000 0.500000 Sn
0.500000 0.500000 0.000000 Sn
0.000000 0.000000 0.000000 Sn
0.000000 0.500000 0.500000 Sn
0.750000 0.250000 0.250000 Ir
0.750000 0.750000 0.750000 Ir
0.250000 0.250000 0.750000 Ir
0.250000 0.750000 0.250000 Ir
