Nb4 Fe4 Sn4 Ru4
1.0
6.297406 0.000000 0.000000
-0.000000 6.297406 0.000000
0.000000 0.000000 6.297406
Nb Fe Sn Ru
4 4 4 4
direct
0.750000 0.250000 0.250000 Nb
0.750000 0.750000 0.750000 Nb
0.250000 0.250000 0.750000 Nb
0.250000 0.750000 0.250000 Nb
0.500000 0.500000 0.500000 Fe
0.500000 0.000000 0.000000 Fe
0.000000 0.500000 0.000000 Fe
0.000000 0.000000 0.500000 Fe
0.250000 0.250000 0.250000 Sn
0.250000 0.750000 0.750000 Sn
0.750000 0.250000 0.750000 Sn
0.750000 0.750000 0.250000 Sn
0.500000 0.500000 0.000000 Ru
0.500000 0.000000 0.500000 Ru
0.000000 0.500000 0.500000 Ru
0.000000 0.000000 0.000000 Ru
