Mn4 Zn4 Cu4 Au4
1.0
6.170972 0.000000 0.000000
-0.000000 6.170972 0.000000
0.000000 0.000000 6.170972
Mn Zn Cu Au
4 4 4 4
direct
0.750000 0.250000 0.250000 Mn
0.750000 0.750000 0.750000 Mn
0.250000 0.250000 0.750000 Mn
0.250000 0.750000 0.250000 Mn
0.250000 0.250000 0.250000 Zn
0.250000 0.750000 0.750000 Zn
0.750000 0.250000 0.750000 Zn
0.750000 0.750000 0.250000 Zn
0.500000 0.500000 0.500000 Cu
0.500000 0.000000 0.000000 Cu
0.000000 0.500000 0.000000 Cu
0.000000 0.000000 0.500000 Cu
0.500000 0.500000 0.000000 Au
0.500000 0.000000 0.500000 Au
0.000000 0.500000 0.500000 Au
0.000000 0.000000 0.000000 Au
