Mn4 V4 Tc4 Ge4
1.0
5.928430 0.000000 0.000000
-0.000000 5.928430 0.000000
0.000000 0.000000 5.928430
Mn V Tc Ge
4 4 4 4
direct
0.250000 0.250000 0.250000 Mn
0.250000 0.750000 0.750000 Mn
0.750000 0.250000 0.750000 Mn
0.750000 0.750000 0.250000 Mn
0.500000 0.000000 0.000000 V
0.500000 0.500000 0.500000 V
0.000000 0.000000 0.500000 V
0.000000 0.500000 0.000000 V
0.250000 0.250000 0.750000 Tc
0.250000 0.750000 0.250000 Tc
0.750000 0.250000 0.250000 Tc
0.750000 0.750000 0.750000 Tc
0.000000 0.000000 0.000000 Ge
0.000000 0.500000 0.500000 Ge
0.500000 0.000000 0.500000 Ge
0.500000 0.500000 0.000000 Ge
