Mn4 V4 Ga4 Tc4
1.0
5.994254 0.000000 0.000000
-0.000000 5.994254 0.000000
0.000000 0.000000 5.994254
Mn V Ga Tc
4 4 4 4
direct
0.250000 0.250000 0.250000 Mn
0.250000 0.750000 0.750000 Mn
0.750000 0.250000 0.750000 Mn
0.750000 0.750000 0.250000 Mn
0.500000 0.000000 0.000000 V
0.500000 0.500000 0.500000 V
0.000000 0.000000 0.500000 V
0.000000 0.500000 0.000000 V
0.000000 0.000000 0.000000 Ga
0.000000 0.500000 0.500000 Ga
0.500000 0.000000 0.500000 Ga
0.500000 0.500000 0.000000 Ga
0.250000 0.250000 0.750000 Tc
0.250000 0.750000 0.250000 Tc
0.750000 0.250000 0.250000 Tc
0.750000 0.750000 0.750000 Tc
