Li4 Mn4 Co4 Sn4
1.0
6.007636 0.000000 0.000000
-0.000000 6.007636 0.000000
0.000000 0.000000 6.007636
Li Mn Co Sn
4 4 4 4
direct
0.500000 0.000000 0.000000 Li
0.500000 0.500000 0.500000 Li
0.000000 0.000000 0.500000 Li
0.000000 0.500000 0.000000 Li
0.250000 0.250000 0.250000 Mn
0.250000 0.750000 0.750000 Mn
0.750000 0.250000 0.750000 Mn
0.750000 0.750000 0.250000 Mn
0.000000 0.000000 0.000000 Co
0.000000 0.500000 0.500000 Co
0.500000 0.000000 0.500000 Co
0.500000 0.500000 0.000000 Co
0.250000 0.250000 0.750000 Sn
0.250000 0.750000 0.250000 Sn
0.750000 0.250000 0.250000 Sn
0.750000 0.750000 0.750000 Sn
