Ta4 Ga4 Fe4 Tc4
1.0
6.114608 0.000000 0.000000
-0.000000 6.114608 0.000000
0.000000 0.000000 6.114608
Ta Ga Fe Tc
4 4 4 4
direct
0.000000 0.000000 0.500000 Ta
0.000000 0.500000 0.000000 Ta
0.500000 0.000000 0.000000 Ta
0.500000 0.500000 0.500000 Ta
0.500000 0.000000 0.500000 Ga
0.500000 0.500000 0.000000 Ga
0.000000 0.000000 0.000000 Ga
0.000000 0.500000 0.500000 Ga
0.750000 0.250000 0.750000 Fe
0.750000 0.750000 0.250000 Fe
0.250000 0.250000 0.250000 Fe
0.250000 0.750000 0.750000 Fe
0.750000 0.250000 0.250000 Tc
0.750000 0.750000 0.750000 Tc
0.250000 0.250000 0.750000 Tc
0.250000 0.750000 0.250000 Tc
