Al4 V4 Ni4 Ru4
1.0
5.917204 0.000000 0.000000
-0.000000 5.917204 0.000000
0.000000 0.000000 5.917204
Al V Ni Ru
4 4 4 4
direct
0.000000 0.000000 0.000000 Al
0.000000 0.500000 0.500000 Al
0.500000 0.000000 0.500000 Al
0.500000 0.500000 0.000000 Al
0.000000 0.500000 0.000000 V
0.000000 0.000000 0.500000 V
0.500000 0.500000 0.500000 V
0.500000 0.000000 0.000000 V
0.250000 0.250000 0.250000 Ni
0.250000 0.750000 0.750000 Ni
0.750000 0.250000 0.750000 Ni
0.750000 0.750000 0.250000 Ni
0.250000 0.250000 0.750000 Ru
0.250000 0.750000 0.250000 Ru
0.750000 0.250000 0.250000 Ru
0.750000 0.750000 0.750000 Ru
