Sc4 Zn4 Co4 Rh4
1.0
6.133182 0.000000 0.000000
-0.000000 6.133182 0.000000
0.000000 0.000000 6.133182
Sc Zn Co Rh
4 4 4 4
direct
0.500000 0.500000 0.500000 Sc
0.500000 0.000000 0.000000 Sc
0.000000 0.500000 0.000000 Sc
0.000000 0.000000 0.500000 Sc
0.500000 0.000000 0.500000 Zn
0.500000 0.500000 0.000000 Zn
0.000000 0.000000 0.000000 Zn
0.000000 0.500000 0.500000 Zn
0.750000 0.250000 0.750000 Co
0.750000 0.750000 0.250000 Co
0.250000 0.250000 0.250000 Co
0.250000 0.750000 0.750000 Co
0.750000 0.250000 0.250000 Rh
0.750000 0.750000 0.750000 Rh
0.250000 0.250000 0.750000 Rh
0.250000 0.750000 0.250000 Rh
