Sc4 Al4 Co4 Pt4
1.0
6.207764 0.000000 0.000000
-0.000000 6.207764 0.000000
0.000000 0.000000 6.207764
Sc Al Co Pt
4 4 4 4
direct
0.500000 0.000000 0.000000 Sc
0.500000 0.500000 0.500000 Sc
0.000000 0.000000 0.500000 Sc
0.000000 0.500000 0.000000 Sc
0.000000 0.000000 0.000000 Al
0.000000 0.500000 0.500000 Al
0.500000 0.000000 0.500000 Al
0.500000 0.500000 0.000000 Al
0.250000 0.250000 0.250000 Co
0.250000 0.750000 0.750000 Co
0.750000 0.250000 0.750000 Co
0.750000 0.750000 0.250000 Co
0.250000 0.250000 0.750000 Pt
0.250000 0.750000 0.250000 Pt
0.750000 0.250000 0.250000 Pt
0.750000 0.750000 0.750000 Pt
