Li4 Mg4 Mn4 Ga4
1.0
6.276126 0.000000 0.000000
-0.000000 6.276126 0.000000
0.000000 0.000000 6.276126
Li Mg Mn Ga
4 4 4 4
direct
0.250000 0.250000 0.250000 Li
0.250000 0.750000 0.750000 Li
0.750000 0.250000 0.750000 Li
0.750000 0.750000 0.250000 Li
0.500000 0.000000 0.000000 Mg
0.500000 0.500000 0.500000 Mg
0.000000 0.000000 0.500000 Mg
0.000000 0.500000 0.000000 Mg
0.250000 0.250000 0.750000 Mn
0.250000 0.750000 0.250000 Mn
0.750000 0.250000 0.250000 Mn
0.750000 0.750000 0.750000 Mn
0.000000 0.000000 0.000000 Ga
0.000000 0.500000 0.500000 Ga
0.500000 0.000000 0.500000 Ga
0.500000 0.500000 0.000000 Ga
