Mn4 V4 Co4 Ge4
1.0
5.729096 0.000000 0.000000
-0.000000 5.729096 0.000000
0.000000 0.000000 5.729096
Mn V Co Ge
4 4 4 4
direct
0.500000 0.000000 0.500000 Mn
0.500000 0.500000 0.000000 Mn
0.000000 0.000000 0.000000 Mn
0.000000 0.500000 0.500000 Mn
0.750000 0.250000 0.750000 V
0.750000 0.750000 0.250000 V
0.250000 0.250000 0.250000 V
0.250000 0.750000 0.750000 V
0.500000 0.500000 0.500000 Co
0.500000 0.000000 0.000000 Co
0.000000 0.500000 0.000000 Co
0.000000 0.000000 0.500000 Co
0.750000 0.250000 0.250000 Ge
0.750000 0.750000 0.750000 Ge
0.250000 0.250000 0.750000 Ge
0.250000 0.750000 0.250000 Ge
