Ga4 Co4 Tc4 W4
1.0
6.063800 0.000000 0.000000
-0.000000 6.063800 0.000000
0.000000 0.000000 6.063800
Ga Co Tc W
4 4 4 4
direct
0.000000 0.000000 0.000000 Ga
0.000000 0.500000 0.500000 Ga
0.500000 0.000000 0.500000 Ga
0.500000 0.500000 0.000000 Ga
0.250000 0.250000 0.250000 Co
0.250000 0.750000 0.750000 Co
0.750000 0.250000 0.750000 Co
0.750000 0.750000 0.250000 Co
0.250000 0.250000 0.750000 Tc
0.250000 0.750000 0.250000 Tc
0.750000 0.250000 0.250000 Tc
0.750000 0.750000 0.750000 Tc
0.500000 0.000000 0.000000 W
0.500000 0.500000 0.500000 W
0.000000 0.000000 0.500000 W
0.000000 0.500000 0.000000 W
