V4 Fe4 Co4 Sn4
1.0
5.981772 0.000000 0.000000
-0.000000 5.981772 0.000000
0.000000 0.000000 5.981772
V Fe Co Sn
4 4 4 4
direct
0.750000 0.250000 0.750000 V
0.750000 0.750000 0.250000 V
0.250000 0.250000 0.250000 V
0.250000 0.750000 0.750000 V
0.500000 0.000000 0.500000 Fe
0.500000 0.500000 0.000000 Fe
0.000000 0.000000 0.000000 Fe
0.000000 0.500000 0.500000 Fe
0.500000 0.500000 0.500000 Co
0.500000 0.000000 0.000000 Co
0.000000 0.500000 0.000000 Co
0.000000 0.000000 0.500000 Co
0.750000 0.250000 0.250000 Sn
0.750000 0.750000 0.750000 Sn
0.250000 0.250000 0.750000 Sn
0.250000 0.750000 0.250000 Sn
