Mn4 In4 Cu4 Rh4
1.0
6.254668 0.000000 0.000000
-0.000000 6.254668 0.000000
0.000000 0.000000 6.254668
Mn In Cu Rh
4 4 4 4
direct
0.250000 0.750000 0.250000 Mn
0.250000 0.250000 0.750000 Mn
0.750000 0.750000 0.750000 Mn
0.750000 0.250000 0.250000 Mn
0.250000 0.250000 0.250000 In
0.250000 0.750000 0.750000 In
0.750000 0.250000 0.750000 In
0.750000 0.750000 0.250000 In
0.500000 0.500000 0.500000 Cu
0.500000 0.000000 0.000000 Cu
0.000000 0.500000 0.000000 Cu
0.000000 0.000000 0.500000 Cu
0.500000 0.500000 0.000000 Rh
0.500000 0.000000 0.500000 Rh
0.000000 0.500000 0.500000 Rh
0.000000 0.000000 0.000000 Rh
