Zr4 In4 Co4 Pt4
1.0
6.506886 0.000000 0.000000
-0.000000 6.506886 0.000000
0.000000 0.000000 6.506886
Zr In Co Pt
4 4 4 4
direct
0.000000 0.000000 0.500000 Zr
0.000000 0.500000 0.000000 Zr
0.500000 0.000000 0.000000 Zr
0.500000 0.500000 0.500000 Zr
0.500000 0.000000 0.500000 In
0.500000 0.500000 0.000000 In
0.000000 0.000000 0.000000 In
0.000000 0.500000 0.500000 In
0.750000 0.250000 0.750000 Co
0.750000 0.750000 0.250000 Co
0.250000 0.250000 0.250000 Co
0.250000 0.750000 0.750000 Co
0.750000 0.250000 0.250000 Pt
0.750000 0.750000 0.750000 Pt
0.250000 0.250000 0.750000 Pt
0.250000 0.750000 0.250000 Pt
