Ta4 Zn4 Fe4 Os4
1.0
6.102592 0.000000 0.000000
-0.000000 6.102592 0.000000
0.000000 0.000000 6.102592
Ta Zn Fe Os
4 4 4 4
direct
0.250000 0.750000 0.250000 Ta
0.250000 0.250000 0.750000 Ta
0.750000 0.750000 0.750000 Ta
0.750000 0.250000 0.250000 Ta
0.250000 0.250000 0.250000 Zn
0.250000 0.750000 0.750000 Zn
0.750000 0.250000 0.750000 Zn
0.750000 0.750000 0.250000 Zn
0.500000 0.500000 0.500000 Fe
0.500000 0.000000 0.000000 Fe
0.000000 0.500000 0.000000 Fe
0.000000 0.000000 0.500000 Fe
0.500000 0.500000 0.000000 Os
0.500000 0.000000 0.500000 Os
0.000000 0.500000 0.500000 Os
0.000000 0.000000 0.000000 Os
