Mn4 Fe4 Co4 As4
1.0
5.705480 0.000000 0.000000
-0.000000 5.705480 0.000000
0.000000 0.000000 5.705480
Mn Fe Co As
4 4 4 4
direct
0.250000 0.250000 0.250000 Mn
0.250000 0.750000 0.750000 Mn
0.750000 0.250000 0.750000 Mn
0.750000 0.750000 0.250000 Mn
0.500000 0.000000 0.000000 Fe
0.500000 0.500000 0.500000 Fe
0.000000 0.000000 0.500000 Fe
0.000000 0.500000 0.000000 Fe
0.000000 0.000000 0.000000 Co
0.000000 0.500000 0.500000 Co
0.500000 0.000000 0.500000 Co
0.500000 0.500000 0.000000 Co
0.250000 0.250000 0.750000 As
0.250000 0.750000 0.250000 As
0.750000 0.250000 0.250000 As
0.750000 0.750000 0.750000 As
