Mn4 Co4 Si4 Ni4
1.0
5.635858 0.000000 0.000000
-0.000000 5.635858 0.000000
0.000000 0.000000 5.635858
Mn Co Si Ni
4 4 4 4
direct
0.750000 0.250000 0.750000 Mn
0.750000 0.750000 0.250000 Mn
0.250000 0.250000 0.250000 Mn
0.250000 0.750000 0.750000 Mn
0.500000 0.500000 0.500000 Co
0.500000 0.000000 0.000000 Co
0.000000 0.500000 0.000000 Co
0.000000 0.000000 0.500000 Co
0.750000 0.250000 0.250000 Si
0.750000 0.750000 0.750000 Si
0.250000 0.250000 0.750000 Si
0.250000 0.750000 0.250000 Si
0.500000 0.000000 0.500000 Ni
0.500000 0.500000 0.000000 Ni
0.000000 0.000000 0.000000 Ni
0.000000 0.500000 0.500000 Ni
