Li4 Fe4 Si4 Ir4
1.0
5.687792 0.000000 0.000000
-0.000000 5.687792 0.000000
0.000000 0.000000 5.687792
Li Fe Si Ir
4 4 4 4
direct
0.250000 0.750000 0.250000 Li
0.250000 0.250000 0.750000 Li
0.750000 0.750000 0.750000 Li
0.750000 0.250000 0.250000 Li
0.500000 0.500000 0.500000 Fe
0.500000 0.000000 0.000000 Fe
0.000000 0.500000 0.000000 Fe
0.000000 0.000000 0.500000 Fe
0.250000 0.250000 0.250000 Si
0.250000 0.750000 0.750000 Si
0.750000 0.250000 0.750000 Si
0.750000 0.750000 0.250000 Si
0.500000 0.500000 0.000000 Ir
0.500000 0.000000 0.500000 Ir
0.000000 0.500000 0.500000 Ir
0.000000 0.000000 0.000000 Ir
