Al4 V4 Cr4 Os4
1.0
5.996504 0.000000 0.000000
-0.000000 5.996504 0.000000
0.000000 0.000000 5.996504
Al V Cr Os
4 4 4 4
direct
0.000000 0.000000 0.000000 Al
0.000000 0.500000 0.500000 Al
0.500000 0.000000 0.500000 Al
0.500000 0.500000 0.000000 Al
0.500000 0.000000 0.000000 V
0.500000 0.500000 0.500000 V
0.000000 0.000000 0.500000 V
0.000000 0.500000 0.000000 V
0.250000 0.250000 0.250000 Cr
0.250000 0.750000 0.750000 Cr
0.750000 0.250000 0.750000 Cr
0.750000 0.750000 0.250000 Cr
0.250000 0.250000 0.750000 Os
0.250000 0.750000 0.250000 Os
0.750000 0.250000 0.250000 Os
0.750000 0.750000 0.750000 Os
