Mn4 Ni4 Ge4 Pt4
1.0
6.055528 0.000000 0.000000
-0.000000 6.055528 0.000000
0.000000 0.000000 6.055528
Mn Ni Ge Pt
4 4 4 4
direct
0.500000 0.000000 0.000000 Mn
0.500000 0.500000 0.500000 Mn
0.000000 0.000000 0.500000 Mn
0.000000 0.500000 0.000000 Mn
0.250000 0.250000 0.250000 Ni
0.250000 0.750000 0.750000 Ni
0.750000 0.250000 0.750000 Ni
0.750000 0.750000 0.250000 Ni
0.000000 0.000000 0.000000 Ge
0.000000 0.500000 0.500000 Ge
0.500000 0.000000 0.500000 Ge
0.500000 0.500000 0.000000 Ge
0.750000 0.750000 0.750000 Pt
0.750000 0.250000 0.250000 Pt
0.250000 0.750000 0.250000 Pt
0.250000 0.250000 0.750000 Pt
