Ti4 Al4 V4 Co4
1.0
6.014708 0.000000 0.000000
-0.000000 6.014708 0.000000
0.000000 0.000000 6.014708
Ti Al V Co
4 4 4 4
direct
0.750000 0.250000 0.750000 Ti
0.750000 0.750000 0.250000 Ti
0.250000 0.250000 0.250000 Ti
0.250000 0.750000 0.750000 Ti
0.750000 0.250000 0.250000 Al
0.750000 0.750000 0.750000 Al
0.250000 0.250000 0.750000 Al
0.250000 0.750000 0.250000 Al
0.500000 0.000000 0.500000 V
0.500000 0.500000 0.000000 V
0.000000 0.000000 0.000000 V
0.000000 0.500000 0.500000 V
0.000000 0.000000 0.500000 Co
0.000000 0.500000 0.000000 Co
0.500000 0.000000 0.000000 Co
0.500000 0.500000 0.500000 Co
