Li4 Co4 Si4 Os4
1.0
5.659748 0.000000 0.000000
-0.000000 5.659748 0.000000
0.000000 0.000000 5.659748
Li Co Si Os
4 4 4 4
direct
0.250000 0.750000 0.250000 Li
0.250000 0.250000 0.750000 Li
0.750000 0.750000 0.750000 Li
0.750000 0.250000 0.250000 Li
0.500000 0.500000 0.500000 Co
0.500000 0.000000 0.000000 Co
0.000000 0.500000 0.000000 Co
0.000000 0.000000 0.500000 Co
0.250000 0.250000 0.250000 Si
0.250000 0.750000 0.750000 Si
0.750000 0.250000 0.750000 Si
0.750000 0.750000 0.250000 Si
0.500000 0.500000 0.000000 Os
0.500000 0.000000 0.500000 Os
0.000000 0.500000 0.500000 Os
0.000000 0.000000 0.000000 Os
