Ti4 Mn4 Tc4 Sn4
1.0
6.276268 0.000000 0.000000
-0.000000 6.276268 0.000000
0.000000 0.000000 6.276268
Ti Mn Tc Sn
4 4 4 4
direct
0.000000 0.000000 0.500000 Ti
0.000000 0.500000 0.000000 Ti
0.500000 0.000000 0.000000 Ti
0.500000 0.500000 0.500000 Ti
0.750000 0.250000 0.750000 Mn
0.750000 0.750000 0.250000 Mn
0.250000 0.250000 0.250000 Mn
0.250000 0.750000 0.750000 Mn
0.750000 0.250000 0.250000 Tc
0.750000 0.750000 0.750000 Tc
0.250000 0.250000 0.750000 Tc
0.250000 0.750000 0.250000 Tc
0.500000 0.000000 0.500000 Sn
0.500000 0.500000 0.000000 Sn
0.000000 0.000000 0.000000 Sn
0.000000 0.500000 0.500000 Sn
