Ti4 Co4 Si4 Ru4
1.0
5.879274 0.000000 0.000000
-0.000000 5.879274 0.000000
0.000000 0.000000 5.879274
Ti Co Si Ru
4 4 4 4
direct
0.500000 0.500000 0.500000 Ti
0.500000 0.000000 0.000000 Ti
0.000000 0.500000 0.000000 Ti
0.000000 0.000000 0.500000 Ti
0.750000 0.250000 0.750000 Co
0.750000 0.750000 0.250000 Co
0.250000 0.250000 0.250000 Co
0.250000 0.750000 0.750000 Co
0.500000 0.000000 0.500000 Si
0.500000 0.500000 0.000000 Si
0.000000 0.000000 0.000000 Si
0.000000 0.500000 0.500000 Si
0.750000 0.250000 0.250000 Ru
0.750000 0.750000 0.750000 Ru
0.250000 0.250000 0.750000 Ru
0.250000 0.750000 0.250000 Ru
