Al4 Fe4 Co4 W4
1.0
5.867138 0.000000 0.000000
-0.000000 5.867138 0.000000
0.000000 0.000000 5.867138
Al Fe Co W
4 4 4 4
direct
0.000000 0.000000 0.000000 Al
0.000000 0.500000 0.500000 Al
0.500000 0.000000 0.500000 Al
0.500000 0.500000 0.000000 Al
0.250000 0.250000 0.750000 Fe
0.250000 0.750000 0.250000 Fe
0.750000 0.250000 0.250000 Fe
0.750000 0.750000 0.750000 Fe
0.250000 0.250000 0.250000 Co
0.250000 0.750000 0.750000 Co
0.750000 0.250000 0.750000 Co
0.750000 0.750000 0.250000 Co
0.000000 0.500000 0.000000 W
0.000000 0.000000 0.500000 W
0.500000 0.500000 0.500000 W
0.500000 0.000000 0.000000 W
