Mn4 Cu4 Sn4 Pd4
1.0
6.326012 0.000000 0.000000
-0.000000 6.326012 0.000000
0.000000 0.000000 6.326012
Mn Cu Sn Pd
4 4 4 4
direct
0.000000 0.000000 0.500000 Mn
0.000000 0.500000 0.000000 Mn
0.500000 0.000000 0.000000 Mn
0.500000 0.500000 0.500000 Mn
0.750000 0.250000 0.750000 Cu
0.750000 0.750000 0.250000 Cu
0.250000 0.250000 0.250000 Cu
0.250000 0.750000 0.750000 Cu
0.500000 0.000000 0.500000 Sn
0.500000 0.500000 0.000000 Sn
0.000000 0.000000 0.000000 Sn
0.000000 0.500000 0.500000 Sn
0.750000 0.250000 0.250000 Pd
0.750000 0.750000 0.750000 Pd
0.250000 0.250000 0.750000 Pd
0.250000 0.750000 0.250000 Pd
