Zn4 Cr4 Ni4 Rh4
1.0
5.909434 0.000000 0.000000
-0.000000 5.909434 0.000000
0.000000 0.000000 5.909434
Zn Cr Ni Rh
4 4 4 4
direct
0.500000 0.000000 0.500000 Zn
0.500000 0.500000 0.000000 Zn
0.000000 0.000000 0.000000 Zn
0.000000 0.500000 0.500000 Zn
0.500000 0.500000 0.500000 Cr
0.500000 0.000000 0.000000 Cr
0.000000 0.500000 0.000000 Cr
0.000000 0.000000 0.500000 Cr
0.750000 0.250000 0.750000 Ni
0.750000 0.750000 0.250000 Ni
0.250000 0.250000 0.250000 Ni
0.250000 0.750000 0.750000 Ni
0.750000 0.250000 0.250000 Rh
0.750000 0.750000 0.750000 Rh
0.250000 0.250000 0.750000 Rh
0.250000 0.750000 0.250000 Rh
