Hf4 Al4 Co4 Ir4
1.0
6.199130 0.000000 0.000000
-0.000000 6.199130 0.000000
0.000000 0.000000 6.199130
Hf Al Co Ir
4 4 4 4
direct
0.500000 0.000000 0.000000 Hf
0.500000 0.500000 0.500000 Hf
0.000000 0.000000 0.500000 Hf
0.000000 0.500000 0.000000 Hf
0.000000 0.000000 0.000000 Al
0.000000 0.500000 0.500000 Al
0.500000 0.000000 0.500000 Al
0.500000 0.500000 0.000000 Al
0.250000 0.250000 0.250000 Co
0.250000 0.750000 0.750000 Co
0.750000 0.250000 0.750000 Co
0.750000 0.750000 0.250000 Co
0.250000 0.250000 0.750000 Ir
0.250000 0.750000 0.250000 Ir
0.750000 0.250000 0.250000 Ir
0.750000 0.750000 0.750000 Ir
