Mn4 Al4 Cr4 Re4
1.0
5.875594 0.000000 0.000000
-0.000000 5.875594 0.000000
0.000000 0.000000 5.875594
Mn Al Cr Re
4 4 4 4
direct
0.250000 0.250000 0.750000 Mn
0.250000 0.750000 0.250000 Mn
0.750000 0.250000 0.250000 Mn
0.750000 0.750000 0.750000 Mn
0.000000 0.000000 0.000000 Al
0.000000 0.500000 0.500000 Al
0.500000 0.000000 0.500000 Al
0.500000 0.500000 0.000000 Al
0.250000 0.250000 0.250000 Cr
0.250000 0.750000 0.750000 Cr
0.750000 0.250000 0.750000 Cr
0.750000 0.750000 0.250000 Cr
0.000000 0.500000 0.000000 Re
0.000000 0.000000 0.500000 Re
0.500000 0.500000 0.500000 Re
0.500000 0.000000 0.000000 Re
