Ga4 Fe4 Ni4 Ru4
1.0
5.901854 0.000000 0.000000
-0.000000 5.901854 0.000000
0.000000 0.000000 5.901854
Ga Fe Ni Ru
4 4 4 4
direct
0.250000 0.250000 0.250000 Ga
0.250000 0.750000 0.750000 Ga
0.750000 0.250000 0.750000 Ga
0.750000 0.750000 0.250000 Ga
0.750000 0.250000 0.250000 Fe
0.750000 0.750000 0.750000 Fe
0.250000 0.250000 0.750000 Fe
0.250000 0.750000 0.250000 Fe
0.500000 0.500000 0.500000 Ni
0.500000 0.000000 0.000000 Ni
0.000000 0.500000 0.000000 Ni
0.000000 0.000000 0.500000 Ni
0.500000 0.500000 0.000000 Ru
0.500000 0.000000 0.500000 Ru
0.000000 0.500000 0.500000 Ru
0.000000 0.000000 0.000000 Ru
