V4 Ga4 Fe4 Tc4
1.0
5.931290 0.000000 0.000000
-0.000000 5.931290 0.000000
0.000000 0.000000 5.931290
V Ga Fe Tc
4 4 4 4
direct
0.000000 0.000000 0.500000 V
0.000000 0.500000 0.000000 V
0.500000 0.000000 0.000000 V
0.500000 0.500000 0.500000 V
0.500000 0.000000 0.500000 Ga
0.500000 0.500000 0.000000 Ga
0.000000 0.000000 0.000000 Ga
0.000000 0.500000 0.500000 Ga
0.750000 0.250000 0.750000 Fe
0.750000 0.750000 0.250000 Fe
0.250000 0.250000 0.250000 Fe
0.250000 0.750000 0.750000 Fe
0.750000 0.250000 0.250000 Tc
0.750000 0.750000 0.750000 Tc
0.250000 0.250000 0.750000 Tc
0.250000 0.750000 0.250000 Tc
