Nb4 Al4 Fe4 Ni4
1.0
5.978238 0.000000 0.000000
-0.000000 5.978238 0.000000
0.000000 0.000000 5.978238
Nb Al Fe Ni
4 4 4 4
direct
0.000000 0.500000 0.000000 Nb
0.000000 0.000000 0.500000 Nb
0.500000 0.500000 0.500000 Nb
0.500000 0.000000 0.000000 Nb
0.000000 0.000000 0.000000 Al
0.000000 0.500000 0.500000 Al
0.500000 0.000000 0.500000 Al
0.500000 0.500000 0.000000 Al
0.250000 0.250000 0.250000 Fe
0.250000 0.750000 0.750000 Fe
0.750000 0.250000 0.750000 Fe
0.750000 0.750000 0.250000 Fe
0.250000 0.250000 0.750000 Ni
0.250000 0.750000 0.250000 Ni
0.750000 0.250000 0.250000 Ni
0.750000 0.750000 0.750000 Ni
