Hf4 Fe4 Cu4 Sn4
1.0
6.343214 0.000000 0.000000
-0.000000 6.343214 0.000000
0.000000 0.000000 6.343214
Hf Fe Cu Sn
4 4 4 4
direct
0.250000 0.750000 0.250000 Hf
0.250000 0.250000 0.750000 Hf
0.750000 0.750000 0.750000 Hf
0.750000 0.250000 0.250000 Hf
0.500000 0.500000 0.000000 Fe
0.500000 0.000000 0.500000 Fe
0.000000 0.500000 0.500000 Fe
0.000000 0.000000 0.000000 Fe
0.500000 0.500000 0.500000 Cu
0.500000 0.000000 0.000000 Cu
0.000000 0.500000 0.000000 Cu
0.000000 0.000000 0.500000 Cu
0.250000 0.250000 0.250000 Sn
0.250000 0.750000 0.750000 Sn
0.750000 0.250000 0.750000 Sn
0.750000 0.750000 0.250000 Sn
