Mg4 Mn4 Ga4 Cu4
1.0
6.183480 0.000000 0.000000
-0.000000 6.183480 0.000000
0.000000 0.000000 6.183480
Mg Mn Ga Cu
4 4 4 4
direct
0.000000 0.000000 0.000000 Mg
0.000000 0.500000 0.500000 Mg
0.500000 0.000000 0.500000 Mg
0.500000 0.500000 0.000000 Mg
0.500000 0.000000 0.000000 Mn
0.500000 0.500000 0.500000 Mn
0.000000 0.000000 0.500000 Mn
0.000000 0.500000 0.000000 Mn
0.250000 0.250000 0.750000 Ga
0.250000 0.750000 0.250000 Ga
0.750000 0.250000 0.250000 Ga
0.750000 0.750000 0.750000 Ga
0.250000 0.250000 0.250000 Cu
0.250000 0.750000 0.750000 Cu
0.750000 0.250000 0.750000 Cu
0.750000 0.750000 0.250000 Cu
