Nb4 Ga4 Fe4 Ir4
1.0
6.149726 0.000000 0.000000
-0.000000 6.149726 0.000000
0.000000 0.000000 6.149726
Nb Ga Fe Ir
4 4 4 4
direct
0.500000 0.500000 0.500000 Nb
0.500000 0.000000 0.000000 Nb
0.000000 0.500000 0.000000 Nb
0.000000 0.000000 0.500000 Nb
0.500000 0.000000 0.500000 Ga
0.500000 0.500000 0.000000 Ga
0.000000 0.000000 0.000000 Ga
0.000000 0.500000 0.500000 Ga
0.750000 0.250000 0.750000 Fe
0.750000 0.750000 0.250000 Fe
0.250000 0.250000 0.250000 Fe
0.250000 0.750000 0.750000 Fe
0.750000 0.250000 0.250000 Ir
0.750000 0.750000 0.750000 Ir
0.250000 0.250000 0.750000 Ir
0.250000 0.750000 0.250000 Ir
