Ta4 Zn4 Fe4 Ru4
1.0
6.067040 0.000000 0.000000
-0.000000 6.067040 0.000000
0.000000 0.000000 6.067040
Ta Zn Fe Ru
4 4 4 4
direct
0.500000 0.000000 0.000000 Ta
0.500000 0.500000 0.500000 Ta
0.000000 0.000000 0.500000 Ta
0.000000 0.500000 0.000000 Ta
0.000000 0.000000 0.000000 Zn
0.000000 0.500000 0.500000 Zn
0.500000 0.000000 0.500000 Zn
0.500000 0.500000 0.000000 Zn
0.250000 0.250000 0.250000 Fe
0.250000 0.750000 0.750000 Fe
0.750000 0.250000 0.750000 Fe
0.750000 0.750000 0.250000 Fe
0.250000 0.250000 0.750000 Ru
0.250000 0.750000 0.250000 Ru
0.750000 0.250000 0.250000 Ru
0.750000 0.750000 0.750000 Ru
