Sc4 Co4 Sn4 Pd4
1.0
6.413628 0.000000 0.000000
-0.000000 6.413628 0.000000
0.000000 0.000000 6.413628
Sc Co Sn Pd
4 4 4 4
direct
0.250000 0.750000 0.250000 Sc
0.250000 0.250000 0.750000 Sc
0.750000 0.750000 0.750000 Sc
0.750000 0.250000 0.250000 Sc
0.500000 0.500000 0.500000 Co
0.500000 0.000000 0.000000 Co
0.000000 0.500000 0.000000 Co
0.000000 0.000000 0.500000 Co
0.250000 0.250000 0.250000 Sn
0.250000 0.750000 0.750000 Sn
0.750000 0.250000 0.750000 Sn
0.750000 0.750000 0.250000 Sn
0.500000 0.500000 0.000000 Pd
0.500000 0.000000 0.500000 Pd
0.000000 0.500000 0.500000 Pd
0.000000 0.000000 0.000000 Pd
