Mg4 Mn4 Zn4 Ir4
1.0
6.179294 0.000000 0.000000
-0.000000 6.179294 0.000000
0.000000 0.000000 6.179294
Mg Mn Zn Ir
4 4 4 4
direct
0.750000 0.250000 0.250000 Mg
0.750000 0.750000 0.750000 Mg
0.250000 0.250000 0.750000 Mg
0.250000 0.750000 0.250000 Mg
0.750000 0.250000 0.750000 Mn
0.750000 0.750000 0.250000 Mn
0.250000 0.250000 0.250000 Mn
0.250000 0.750000 0.750000 Mn
0.500000 0.000000 0.500000 Zn
0.500000 0.500000 0.000000 Zn
0.000000 0.000000 0.000000 Zn
0.000000 0.500000 0.500000 Zn
0.500000 0.500000 0.500000 Ir
0.500000 0.000000 0.000000 Ir
0.000000 0.500000 0.000000 Ir
0.000000 0.000000 0.500000 Ir
