Mn4 Al4 Cr4 W4
1.0
5.953212 0.000000 0.000000
-0.000000 5.953212 0.000000
0.000000 0.000000 5.953212
Mn Al Cr W
4 4 4 4
direct
0.250000 0.250000 0.750000 Mn
0.250000 0.750000 0.250000 Mn
0.750000 0.250000 0.250000 Mn
0.750000 0.750000 0.750000 Mn
0.000000 0.000000 0.000000 Al
0.000000 0.500000 0.500000 Al
0.500000 0.000000 0.500000 Al
0.500000 0.500000 0.000000 Al
0.250000 0.250000 0.250000 Cr
0.250000 0.750000 0.750000 Cr
0.750000 0.250000 0.750000 Cr
0.750000 0.750000 0.250000 Cr
0.500000 0.000000 0.000000 W
0.500000 0.500000 0.500000 W
0.000000 0.000000 0.500000 W
0.000000 0.500000 0.000000 W
