Mn4 Be4 Fe4 Si4
1.0
5.446497 0.000000 0.000000
-0.000000 5.446497 0.000000
0.000000 0.000000 5.446497
Mn Be Fe Si
4 4 4 4
direct
0.750000 0.250000 0.750000 Mn
0.750000 0.750000 0.250000 Mn
0.250000 0.250000 0.250000 Mn
0.250000 0.750000 0.750000 Mn
0.000000 0.000000 0.500000 Be
0.000000 0.500000 0.000000 Be
0.500000 0.000000 0.000000 Be
0.500000 0.500000 0.500000 Be
0.250000 0.250000 0.750000 Fe
0.250000 0.750000 0.250000 Fe
0.750000 0.250000 0.250000 Fe
0.750000 0.750000 0.750000 Fe
0.000000 0.000000 0.000000 Si
0.000000 0.500000 0.500000 Si
0.500000 0.000000 0.500000 Si
0.500000 0.500000 0.000000 Si
