Ta4 Ga4 Fe4 Ir4
1.0
6.136922 0.000000 0.000000
-0.000000 6.136922 0.000000
0.000000 0.000000 6.136922
Ta Ga Fe Ir
4 4 4 4
direct
0.750000 0.250000 0.250000 Ta
0.750000 0.750000 0.750000 Ta
0.250000 0.250000 0.750000 Ta
0.250000 0.750000 0.250000 Ta
0.250000 0.250000 0.250000 Ga
0.250000 0.750000 0.750000 Ga
0.750000 0.250000 0.750000 Ga
0.750000 0.750000 0.250000 Ga
0.500000 0.500000 0.500000 Fe
0.500000 0.000000 0.000000 Fe
0.000000 0.500000 0.000000 Fe
0.000000 0.000000 0.500000 Fe
0.500000 0.500000 0.000000 Ir
0.500000 0.000000 0.500000 Ir
0.000000 0.500000 0.500000 Ir
0.000000 0.000000 0.000000 Ir
