Mn4 Zn4 Ga4 Cu4
1.0
6.006980 0.000000 0.000000
-0.000000 6.006980 0.000000
0.000000 0.000000 6.006980
Mn Zn Ga Cu
4 4 4 4
direct
0.500000 0.000000 0.000000 Mn
0.500000 0.500000 0.500000 Mn
0.000000 0.000000 0.500000 Mn
0.000000 0.500000 0.000000 Mn
0.250000 0.250000 0.250000 Zn
0.250000 0.750000 0.750000 Zn
0.750000 0.250000 0.750000 Zn
0.750000 0.750000 0.250000 Zn
0.250000 0.250000 0.750000 Ga
0.250000 0.750000 0.250000 Ga
0.750000 0.250000 0.250000 Ga
0.750000 0.750000 0.750000 Ga
0.000000 0.000000 0.000000 Cu
0.000000 0.500000 0.500000 Cu
0.500000 0.000000 0.500000 Cu
0.500000 0.500000 0.000000 Cu
