Li4 Mn4 Al4 Mo4
1.0
5.909724 0.000000 0.000000
-0.000000 5.909724 0.000000
0.000000 0.000000 5.909724
Li Mn Al Mo
4 4 4 4
direct
0.250000 0.250000 0.750000 Li
0.250000 0.750000 0.250000 Li
0.750000 0.250000 0.250000 Li
0.750000 0.750000 0.750000 Li
0.250000 0.250000 0.250000 Mn
0.250000 0.750000 0.750000 Mn
0.750000 0.250000 0.750000 Mn
0.750000 0.750000 0.250000 Mn
0.000000 0.000000 0.000000 Al
0.000000 0.500000 0.500000 Al
0.500000 0.000000 0.500000 Al
0.500000 0.500000 0.000000 Al
0.500000 0.000000 0.000000 Mo
0.500000 0.500000 0.500000 Mo
0.000000 0.000000 0.500000 Mo
0.000000 0.500000 0.000000 Mo
