Ti4 Co4 Sn4 Pd4
1.0
6.275612 0.000000 0.000000
-0.000000 6.275612 0.000000
0.000000 0.000000 6.275612
Ti Co Sn Pd
4 4 4 4
direct
0.000000 0.000000 0.500000 Ti
0.000000 0.500000 0.000000 Ti
0.500000 0.000000 0.000000 Ti
0.500000 0.500000 0.500000 Ti
0.750000 0.250000 0.750000 Co
0.750000 0.750000 0.250000 Co
0.250000 0.250000 0.250000 Co
0.250000 0.750000 0.750000 Co
0.500000 0.000000 0.500000 Sn
0.500000 0.500000 0.000000 Sn
0.000000 0.000000 0.000000 Sn
0.000000 0.500000 0.500000 Sn
0.750000 0.250000 0.250000 Pd
0.750000 0.750000 0.750000 Pd
0.250000 0.250000 0.750000 Pd
0.250000 0.750000 0.250000 Pd
