Sc4 In4 Co4 Cu4
1.0
6.311626 0.000000 0.000000
-0.000000 6.311626 0.000000
0.000000 0.000000 6.311626
Sc In Co Cu
4 4 4 4
direct
0.250000 0.250000 0.250000 Sc
0.250000 0.750000 0.750000 Sc
0.750000 0.250000 0.750000 Sc
0.750000 0.750000 0.250000 Sc
0.250000 0.250000 0.750000 In
0.250000 0.750000 0.250000 In
0.750000 0.250000 0.250000 In
0.750000 0.750000 0.750000 In
0.000000 0.000000 0.000000 Co
0.000000 0.500000 0.500000 Co
0.500000 0.000000 0.500000 Co
0.500000 0.500000 0.000000 Co
0.500000 0.000000 0.000000 Cu
0.500000 0.500000 0.500000 Cu
0.000000 0.000000 0.500000 Cu
0.000000 0.500000 0.000000 Cu
