Li4 Mn4 Zn4 Ni4
1.0
5.817892 0.000000 0.000000
-0.000000 5.817892 0.000000
0.000000 0.000000 5.817892
Li Mn Zn Ni
4 4 4 4
direct
0.750000 0.250000 0.250000 Li
0.750000 0.750000 0.750000 Li
0.250000 0.250000 0.750000 Li
0.250000 0.750000 0.250000 Li
0.500000 0.500000 0.500000 Mn
0.500000 0.000000 0.000000 Mn
0.000000 0.500000 0.000000 Mn
0.000000 0.000000 0.500000 Mn
0.500000 0.500000 0.000000 Zn
0.500000 0.000000 0.500000 Zn
0.000000 0.500000 0.500000 Zn
0.000000 0.000000 0.000000 Zn
0.250000 0.250000 0.250000 Ni
0.250000 0.750000 0.750000 Ni
0.750000 0.250000 0.750000 Ni
0.750000 0.750000 0.250000 Ni
