Nb4 Fe4 Ge4 Ru4
1.0
6.096814 0.000000 0.000000
-0.000000 6.096814 0.000000
0.000000 0.000000 6.096814
Nb Fe Ge Ru
4 4 4 4
direct
0.750000 0.250000 0.250000 Nb
0.750000 0.750000 0.750000 Nb
0.250000 0.250000 0.750000 Nb
0.250000 0.750000 0.250000 Nb
0.500000 0.500000 0.500000 Fe
0.500000 0.000000 0.000000 Fe
0.000000 0.500000 0.000000 Fe
0.000000 0.000000 0.500000 Fe
0.250000 0.250000 0.250000 Ge
0.250000 0.750000 0.750000 Ge
0.750000 0.250000 0.750000 Ge
0.750000 0.750000 0.250000 Ge
0.500000 0.500000 0.000000 Ru
0.500000 0.000000 0.500000 Ru
0.000000 0.500000 0.500000 Ru
0.000000 0.000000 0.000000 Ru
