Zr4 Al4 Fe4 Ru4
1.0
6.193512 0.000000 0.000000
-0.000000 6.193512 0.000000
0.000000 0.000000 6.193512
Zr Al Fe Ru
4 4 4 4
direct
0.000000 0.500000 0.000000 Zr
0.000000 0.000000 0.500000 Zr
0.500000 0.500000 0.500000 Zr
0.500000 0.000000 0.000000 Zr
0.000000 0.000000 0.000000 Al
0.000000 0.500000 0.500000 Al
0.500000 0.000000 0.500000 Al
0.500000 0.500000 0.000000 Al
0.250000 0.250000 0.250000 Fe
0.250000 0.750000 0.750000 Fe
0.750000 0.250000 0.750000 Fe
0.750000 0.750000 0.250000 Fe
0.250000 0.250000 0.750000 Ru
0.250000 0.750000 0.250000 Ru
0.750000 0.250000 0.250000 Ru
0.750000 0.750000 0.750000 Ru
