Mn4 Be4 Si4 Tc4
1.0
5.719788 0.000000 0.000000
-0.000000 5.719788 0.000000
0.000000 0.000000 5.719788
Mn Be Si Tc
4 4 4 4
direct
0.500000 0.500000 0.500000 Mn
0.500000 0.000000 0.000000 Mn
0.000000 0.500000 0.000000 Mn
0.000000 0.000000 0.500000 Mn
0.750000 0.250000 0.250000 Be
0.750000 0.750000 0.750000 Be
0.250000 0.250000 0.750000 Be
0.250000 0.750000 0.250000 Be
0.250000 0.250000 0.250000 Si
0.250000 0.750000 0.750000 Si
0.750000 0.250000 0.750000 Si
0.750000 0.750000 0.250000 Si
0.500000 0.500000 0.000000 Tc
0.500000 0.000000 0.500000 Tc
0.000000 0.500000 0.500000 Tc
0.000000 0.000000 0.000000 Tc
