Ti4 Fe4 Si4 Tc4
1.0
5.899490 0.000000 0.000000
-0.000000 5.899490 0.000000
0.000000 0.000000 5.899490
Ti Fe Si Tc
4 4 4 4
direct
0.000000 0.000000 0.500000 Ti
0.000000 0.500000 0.000000 Ti
0.500000 0.000000 0.000000 Ti
0.500000 0.500000 0.500000 Ti
0.750000 0.250000 0.750000 Fe
0.750000 0.750000 0.250000 Fe
0.250000 0.250000 0.250000 Fe
0.250000 0.750000 0.750000 Fe
0.500000 0.000000 0.500000 Si
0.500000 0.500000 0.000000 Si
0.000000 0.000000 0.000000 Si
0.000000 0.500000 0.500000 Si
0.750000 0.250000 0.250000 Tc
0.750000 0.750000 0.750000 Tc
0.250000 0.250000 0.750000 Tc
0.250000 0.750000 0.250000 Tc
