Zr4 Fe4 Co4 Sn4
1.0
6.254178 0.000000 0.000000
-0.000000 6.254178 0.000000
0.000000 0.000000 6.254178
Zr Fe Co Sn
4 4 4 4
direct
0.250000 0.750000 0.250000 Zr
0.250000 0.250000 0.750000 Zr
0.750000 0.750000 0.750000 Zr
0.750000 0.250000 0.250000 Zr
0.500000 0.500000 0.000000 Fe
0.500000 0.000000 0.500000 Fe
0.000000 0.500000 0.500000 Fe
0.000000 0.000000 0.000000 Fe
0.500000 0.500000 0.500000 Co
0.500000 0.000000 0.000000 Co
0.000000 0.500000 0.000000 Co
0.000000 0.000000 0.500000 Co
0.250000 0.250000 0.250000 Sn
0.250000 0.750000 0.750000 Sn
0.750000 0.250000 0.750000 Sn
0.750000 0.750000 0.250000 Sn
