Hf4 Mn4 Ga4 Ir4
1.0
6.220554 0.000000 0.000000
-0.000000 6.220554 0.000000
0.000000 0.000000 6.220554
Hf Mn Ga Ir
4 4 4 4
direct
0.000000 0.500000 0.000000 Hf
0.000000 0.000000 0.500000 Hf
0.500000 0.500000 0.500000 Hf
0.500000 0.000000 0.000000 Hf
0.250000 0.250000 0.250000 Mn
0.250000 0.750000 0.750000 Mn
0.750000 0.250000 0.750000 Mn
0.750000 0.750000 0.250000 Mn
0.000000 0.000000 0.000000 Ga
0.000000 0.500000 0.500000 Ga
0.500000 0.000000 0.500000 Ga
0.500000 0.500000 0.000000 Ga
0.250000 0.250000 0.750000 Ir
0.250000 0.750000 0.250000 Ir
0.750000 0.250000 0.250000 Ir
0.750000 0.750000 0.750000 Ir
