Mn4 Zn4 Ga4 Fe4
1.0
5.852670 0.000000 0.000000
-0.000000 5.852670 0.000000
0.000000 0.000000 5.852670
Mn Zn Ga Fe
4 4 4 4
direct
0.000000 0.500000 0.000000 Mn
0.000000 0.000000 0.500000 Mn
0.500000 0.500000 0.500000 Mn
0.500000 0.000000 0.000000 Mn
0.750000 0.750000 0.750000 Zn
0.750000 0.250000 0.250000 Zn
0.250000 0.750000 0.250000 Zn
0.250000 0.250000 0.750000 Zn
0.750000 0.750000 0.250000 Ga
0.750000 0.250000 0.750000 Ga
0.250000 0.750000 0.750000 Ga
0.250000 0.250000 0.250000 Ga
0.000000 0.000000 0.000000 Fe
0.000000 0.500000 0.500000 Fe
0.500000 0.000000 0.500000 Fe
0.500000 0.500000 0.000000 Fe
