Mg4 In4 Co4 Rh4
1.0
6.251224 0.000000 0.000000
-0.000000 6.251224 0.000000
0.000000 0.000000 6.251224
Mg In Co Rh
4 4 4 4
direct
0.500000 0.500000 0.500000 Mg
0.500000 0.000000 0.000000 Mg
0.000000 0.500000 0.000000 Mg
0.000000 0.000000 0.500000 Mg
0.500000 0.000000 0.500000 In
0.500000 0.500000 0.000000 In
0.000000 0.000000 0.000000 In
0.000000 0.500000 0.500000 In
0.750000 0.250000 0.750000 Co
0.750000 0.750000 0.250000 Co
0.250000 0.250000 0.250000 Co
0.250000 0.750000 0.750000 Co
0.750000 0.250000 0.250000 Rh
0.750000 0.750000 0.750000 Rh
0.250000 0.250000 0.750000 Rh
0.250000 0.750000 0.250000 Rh
