Mn4 Nb4 Tc4 Sn4
1.0
6.329574 0.000000 0.000000
-0.000000 6.329574 0.000000
0.000000 0.000000 6.329574
Mn Nb Tc Sn
4 4 4 4
direct
0.500000 0.500000 0.500000 Mn
0.500000 0.000000 0.000000 Mn
0.000000 0.500000 0.000000 Mn
0.000000 0.000000 0.500000 Mn
0.250000 0.750000 0.250000 Nb
0.250000 0.250000 0.750000 Nb
0.750000 0.750000 0.750000 Nb
0.750000 0.250000 0.250000 Nb
0.500000 0.500000 0.000000 Tc
0.500000 0.000000 0.500000 Tc
0.000000 0.500000 0.500000 Tc
0.000000 0.000000 0.000000 Tc
0.250000 0.250000 0.250000 Sn
0.250000 0.750000 0.750000 Sn
0.750000 0.250000 0.750000 Sn
0.750000 0.750000 0.250000 Sn
