Zn4 Fe4 Co4 Rh4
1.0
5.867640 0.000000 0.000000
-0.000000 5.867640 0.000000
0.000000 0.000000 5.867640
Zn Fe Co Rh
4 4 4 4
direct
0.000000 0.000000 0.000000 Zn
0.000000 0.500000 0.500000 Zn
0.500000 0.000000 0.500000 Zn
0.500000 0.500000 0.000000 Zn
0.500000 0.000000 0.000000 Fe
0.500000 0.500000 0.500000 Fe
0.000000 0.000000 0.500000 Fe
0.000000 0.500000 0.000000 Fe
0.250000 0.250000 0.250000 Co
0.250000 0.750000 0.750000 Co
0.750000 0.250000 0.750000 Co
0.750000 0.750000 0.250000 Co
0.250000 0.250000 0.750000 Rh
0.250000 0.750000 0.250000 Rh
0.750000 0.250000 0.250000 Rh
0.750000 0.750000 0.750000 Rh
