Ti4 Al4 Fe4 Cu4
1.0
5.901794 0.000000 0.000000
-0.000000 5.901794 0.000000
0.000000 0.000000 5.901794
Ti Al Fe Cu
4 4 4 4
direct
0.000000 0.000000 0.500000 Ti
0.000000 0.500000 0.000000 Ti
0.500000 0.000000 0.000000 Ti
0.500000 0.500000 0.500000 Ti
0.000000 0.000000 0.000000 Al
0.000000 0.500000 0.500000 Al
0.500000 0.000000 0.500000 Al
0.500000 0.500000 0.000000 Al
0.750000 0.250000 0.750000 Fe
0.750000 0.750000 0.250000 Fe
0.250000 0.250000 0.250000 Fe
0.250000 0.750000 0.750000 Fe
0.250000 0.250000 0.750000 Cu
0.250000 0.750000 0.250000 Cu
0.750000 0.250000 0.250000 Cu
0.750000 0.750000 0.750000 Cu
