Li4 Mn4 Si4 Ir4
1.0
5.776826 0.000000 0.000000
-0.000000 5.776826 0.000000
0.000000 0.000000 5.776826
Li Mn Si Ir
4 4 4 4
direct
0.250000 0.750000 0.250000 Li
0.250000 0.250000 0.750000 Li
0.750000 0.750000 0.750000 Li
0.750000 0.250000 0.250000 Li
0.500000 0.500000 0.500000 Mn
0.500000 0.000000 0.000000 Mn
0.000000 0.500000 0.000000 Mn
0.000000 0.000000 0.500000 Mn
0.250000 0.250000 0.250000 Si
0.250000 0.750000 0.750000 Si
0.750000 0.250000 0.750000 Si
0.750000 0.750000 0.250000 Si
0.500000 0.500000 0.000000 Ir
0.500000 0.000000 0.500000 Ir
0.000000 0.500000 0.500000 Ir
0.000000 0.000000 0.000000 Ir
