Mn4 Fe4 Re4 Si4
1.0
5.783838 0.000000 0.000000
-0.000000 5.783838 0.000000
0.000000 0.000000 5.783838
Mn Fe Re Si
4 4 4 4
direct
0.500000 0.500000 0.500000 Mn
0.500000 0.000000 0.000000 Mn
0.000000 0.500000 0.000000 Mn
0.000000 0.000000 0.500000 Mn
0.750000 0.250000 0.750000 Fe
0.750000 0.750000 0.250000 Fe
0.250000 0.250000 0.250000 Fe
0.250000 0.750000 0.750000 Fe
0.750000 0.250000 0.250000 Re
0.750000 0.750000 0.750000 Re
0.250000 0.250000 0.750000 Re
0.250000 0.750000 0.250000 Re
0.500000 0.000000 0.500000 Si
0.500000 0.500000 0.000000 Si
0.000000 0.000000 0.000000 Si
0.000000 0.500000 0.500000 Si
