Ta4 Fe4 Si4 Os4
1.0
6.041872 0.000000 0.000000
-0.000000 6.041872 0.000000
0.000000 0.000000 6.041872
Ta Fe Si Os
4 4 4 4
direct
0.250000 0.750000 0.250000 Ta
0.250000 0.250000 0.750000 Ta
0.750000 0.750000 0.750000 Ta
0.750000 0.250000 0.250000 Ta
0.500000 0.500000 0.500000 Fe
0.500000 0.000000 0.000000 Fe
0.000000 0.500000 0.000000 Fe
0.000000 0.000000 0.500000 Fe
0.250000 0.250000 0.250000 Si
0.250000 0.750000 0.750000 Si
0.750000 0.250000 0.750000 Si
0.750000 0.750000 0.250000 Si
0.500000 0.500000 0.000000 Os
0.500000 0.000000 0.500000 Os
0.000000 0.500000 0.500000 Os
0.000000 0.000000 0.000000 Os
