Al4 V4 Cr4 Tc4
1.0
6.042286 0.000000 0.000000
-0.000000 6.042286 0.000000
0.000000 0.000000 6.042286
Al V Cr Tc
4 4 4 4
direct
0.000000 0.000000 0.000000 Al
0.000000 0.500000 0.500000 Al
0.500000 0.000000 0.500000 Al
0.500000 0.500000 0.000000 Al
0.500000 0.000000 0.000000 V
0.500000 0.500000 0.500000 V
0.000000 0.000000 0.500000 V
0.000000 0.500000 0.000000 V
0.250000 0.250000 0.250000 Cr
0.250000 0.750000 0.750000 Cr
0.750000 0.250000 0.750000 Cr
0.750000 0.750000 0.250000 Cr
0.250000 0.250000 0.750000 Tc
0.250000 0.750000 0.250000 Tc
0.750000 0.250000 0.250000 Tc
0.750000 0.750000 0.750000 Tc
