Li4 Mn4 Ge4 Pt4
1.0
6.085028 0.000000 0.000000
-0.000000 6.085028 0.000000
0.000000 0.000000 6.085028
Li Mn Ge Pt
4 4 4 4
direct
0.500000 0.000000 0.000000 Li
0.500000 0.500000 0.500000 Li
0.000000 0.000000 0.500000 Li
0.000000 0.500000 0.000000 Li
0.250000 0.250000 0.250000 Mn
0.250000 0.750000 0.750000 Mn
0.750000 0.250000 0.750000 Mn
0.750000 0.750000 0.250000 Mn
0.000000 0.000000 0.000000 Ge
0.000000 0.500000 0.500000 Ge
0.500000 0.000000 0.500000 Ge
0.500000 0.500000 0.000000 Ge
0.250000 0.250000 0.750000 Pt
0.250000 0.750000 0.250000 Pt
0.750000 0.250000 0.250000 Pt
0.750000 0.750000 0.750000 Pt
