Li4 Mn4 Ga4 Rh4
1.0
5.961222 0.000000 0.000000
-0.000000 5.961222 0.000000
0.000000 0.000000 5.961222
Li Mn Ga Rh
4 4 4 4
direct
0.500000 0.000000 0.000000 Li
0.500000 0.500000 0.500000 Li
0.000000 0.000000 0.500000 Li
0.000000 0.500000 0.000000 Li
0.250000 0.250000 0.250000 Mn
0.250000 0.750000 0.750000 Mn
0.750000 0.250000 0.750000 Mn
0.750000 0.750000 0.250000 Mn
0.000000 0.000000 0.000000 Ga
0.000000 0.500000 0.500000 Ga
0.500000 0.000000 0.500000 Ga
0.500000 0.500000 0.000000 Ga
0.250000 0.250000 0.750000 Rh
0.250000 0.750000 0.250000 Rh
0.750000 0.250000 0.250000 Rh
0.750000 0.750000 0.750000 Rh
