Li4 Mn4 Ga4 Au4
1.0
6.211702 0.000000 0.000000
-0.000000 6.211702 0.000000
0.000000 0.000000 6.211702
Li Mn Ga Au
4 4 4 4
direct
0.500000 0.500000 0.000000 Li
0.500000 0.000000 0.500000 Li
0.000000 0.500000 0.500000 Li
0.000000 0.000000 0.000000 Li
0.500000 0.500000 0.500000 Mn
0.500000 0.000000 0.000000 Mn
0.000000 0.500000 0.000000 Mn
0.000000 0.000000 0.500000 Mn
0.250000 0.250000 0.250000 Ga
0.250000 0.750000 0.750000 Ga
0.750000 0.250000 0.750000 Ga
0.750000 0.750000 0.250000 Ga
0.750000 0.250000 0.250000 Au
0.750000 0.750000 0.750000 Au
0.250000 0.250000 0.750000 Au
0.250000 0.750000 0.250000 Au
