Mn4 Al4 Fe4 Tc4
1.0
5.862592 0.000000 0.000000
-0.000000 5.862592 0.000000
0.000000 0.000000 5.862592
Mn Al Fe Tc
4 4 4 4
direct
0.500000 0.000000 0.000000 Mn
0.500000 0.500000 0.500000 Mn
0.000000 0.000000 0.500000 Mn
0.000000 0.500000 0.000000 Mn
0.000000 0.000000 0.000000 Al
0.000000 0.500000 0.500000 Al
0.500000 0.000000 0.500000 Al
0.500000 0.500000 0.000000 Al
0.250000 0.250000 0.250000 Fe
0.250000 0.750000 0.750000 Fe
0.750000 0.250000 0.750000 Fe
0.750000 0.750000 0.250000 Fe
0.250000 0.250000 0.750000 Tc
0.250000 0.750000 0.250000 Tc
0.750000 0.250000 0.250000 Tc
0.750000 0.750000 0.750000 Tc
