Ta4 Mn4 Cr4 Ga4
1.0
6.050038 0.000000 0.000000
-0.000000 6.050038 0.000000
0.000000 0.000000 6.050038
Ta Mn Cr Ga
4 4 4 4
direct
0.000000 0.000000 0.500000 Ta
0.000000 0.500000 0.000000 Ta
0.500000 0.000000 0.000000 Ta
0.500000 0.500000 0.500000 Ta
0.750000 0.250000 0.250000 Mn
0.750000 0.750000 0.750000 Mn
0.250000 0.250000 0.750000 Mn
0.250000 0.750000 0.250000 Mn
0.750000 0.250000 0.750000 Cr
0.750000 0.750000 0.250000 Cr
0.250000 0.250000 0.250000 Cr
0.250000 0.750000 0.750000 Cr
0.500000 0.000000 0.500000 Ga
0.500000 0.500000 0.000000 Ga
0.000000 0.000000 0.000000 Ga
0.000000 0.500000 0.500000 Ga
