Nb4 Zn4 Fe4 Ru4
1.0
6.076118 0.000000 0.000000
-0.000000 6.076118 0.000000
0.000000 0.000000 6.076118
Nb Zn Fe Ru
4 4 4 4
direct
0.250000 0.750000 0.250000 Nb
0.250000 0.250000 0.750000 Nb
0.750000 0.750000 0.750000 Nb
0.750000 0.250000 0.250000 Nb
0.250000 0.250000 0.250000 Zn
0.250000 0.750000 0.750000 Zn
0.750000 0.250000 0.750000 Zn
0.750000 0.750000 0.250000 Zn
0.500000 0.500000 0.500000 Fe
0.500000 0.000000 0.000000 Fe
0.000000 0.500000 0.000000 Fe
0.000000 0.000000 0.500000 Fe
0.500000 0.500000 0.000000 Ru
0.500000 0.000000 0.500000 Ru
0.000000 0.500000 0.500000 Ru
0.000000 0.000000 0.000000 Ru
