Mn4 Fe4 Co4 Ge4
1.0
5.707442 0.000000 0.000000
-0.000000 5.707442 0.000000
0.000000 0.000000 5.707442
Mn Fe Co Ge
4 4 4 4
direct
0.250000 0.250000 0.250000 Mn
0.250000 0.750000 0.750000 Mn
0.750000 0.250000 0.750000 Mn
0.750000 0.750000 0.250000 Mn
0.500000 0.000000 0.000000 Fe
0.500000 0.500000 0.500000 Fe
0.000000 0.000000 0.500000 Fe
0.000000 0.500000 0.000000 Fe
0.000000 0.000000 0.000000 Co
0.000000 0.500000 0.500000 Co
0.500000 0.000000 0.500000 Co
0.500000 0.500000 0.000000 Co
0.250000 0.250000 0.750000 Ge
0.250000 0.750000 0.250000 Ge
0.750000 0.250000 0.250000 Ge
0.750000 0.750000 0.750000 Ge
