Mn4 Nb4 Al4 Os4
1.0
6.127860 0.000000 0.000000
-0.000000 6.127860 0.000000
0.000000 0.000000 6.127860
Mn Nb Al Os
4 4 4 4
direct
0.250000 0.250000 0.250000 Mn
0.250000 0.750000 0.750000 Mn
0.750000 0.250000 0.750000 Mn
0.750000 0.750000 0.250000 Mn
0.500000 0.000000 0.000000 Nb
0.500000 0.500000 0.500000 Nb
0.000000 0.000000 0.500000 Nb
0.000000 0.500000 0.000000 Nb
0.000000 0.000000 0.000000 Al
0.000000 0.500000 0.500000 Al
0.500000 0.000000 0.500000 Al
0.500000 0.500000 0.000000 Al
0.250000 0.250000 0.750000 Os
0.250000 0.750000 0.250000 Os
0.750000 0.250000 0.250000 Os
0.750000 0.750000 0.750000 Os
