Li4 Zr4 Fe4 Sn4
1.0
6.347096 0.000000 0.000000
-0.000000 6.347096 0.000000
0.000000 0.000000 6.347096
Li Zr Fe Sn
4 4 4 4
direct
0.750000 0.250000 0.250000 Li
0.750000 0.750000 0.750000 Li
0.250000 0.250000 0.750000 Li
0.250000 0.750000 0.250000 Li
0.500000 0.500000 0.500000 Zr
0.500000 0.000000 0.000000 Zr
0.000000 0.500000 0.000000 Zr
0.000000 0.000000 0.500000 Zr
0.750000 0.250000 0.750000 Fe
0.750000 0.750000 0.250000 Fe
0.250000 0.250000 0.250000 Fe
0.250000 0.750000 0.750000 Fe
0.500000 0.000000 0.500000 Sn
0.500000 0.500000 0.000000 Sn
0.000000 0.000000 0.000000 Sn
0.000000 0.500000 0.500000 Sn
