Li4 Mn4 Ga4 Cu4
1.0
5.922374 0.000000 0.000000
-0.000000 5.922374 0.000000
0.000000 0.000000 5.922374
Li Mn Ga Cu
4 4 4 4
direct
0.250000 0.750000 0.250000 Li
0.250000 0.250000 0.750000 Li
0.750000 0.750000 0.750000 Li
0.750000 0.250000 0.250000 Li
0.250000 0.250000 0.250000 Mn
0.250000 0.750000 0.750000 Mn
0.750000 0.250000 0.750000 Mn
0.750000 0.750000 0.250000 Mn
0.500000 0.500000 0.000000 Ga
0.500000 0.000000 0.500000 Ga
0.000000 0.500000 0.500000 Ga
0.000000 0.000000 0.000000 Ga
0.500000 0.500000 0.500000 Cu
0.500000 0.000000 0.000000 Cu
0.000000 0.500000 0.000000 Cu
0.000000 0.000000 0.500000 Cu
