Ta4 Zn4 Cr4 Ru4
1.0
6.174412 0.000000 0.000000
-0.000000 6.174412 0.000000
0.000000 0.000000 6.174412
Ta Zn Cr Ru
4 4 4 4
direct
0.500000 0.500000 0.500000 Ta
0.500000 0.000000 0.000000 Ta
0.000000 0.500000 0.000000 Ta
0.000000 0.000000 0.500000 Ta
0.500000 0.000000 0.500000 Zn
0.500000 0.500000 0.000000 Zn
0.000000 0.000000 0.000000 Zn
0.000000 0.500000 0.500000 Zn
0.750000 0.250000 0.750000 Cr
0.750000 0.750000 0.250000 Cr
0.250000 0.250000 0.250000 Cr
0.250000 0.750000 0.750000 Cr
0.750000 0.250000 0.250000 Ru
0.750000 0.750000 0.750000 Ru
0.250000 0.250000 0.750000 Ru
0.250000 0.750000 0.250000 Ru
