Mn4 V4 Ga4 Fe4
1.0
5.729872 0.000000 0.000000
-0.000000 5.729872 0.000000
0.000000 0.000000 5.729872
Mn V Ga Fe
4 4 4 4
direct
0.500000 0.000000 0.000000 Mn
0.500000 0.500000 0.500000 Mn
0.000000 0.000000 0.500000 Mn
0.000000 0.500000 0.000000 Mn
0.250000 0.250000 0.250000 V
0.250000 0.750000 0.750000 V
0.750000 0.250000 0.750000 V
0.750000 0.750000 0.250000 V
0.250000 0.250000 0.750000 Ga
0.250000 0.750000 0.250000 Ga
0.750000 0.250000 0.250000 Ga
0.750000 0.750000 0.750000 Ga
0.000000 0.000000 0.000000 Fe
0.000000 0.500000 0.500000 Fe
0.500000 0.000000 0.500000 Fe
0.500000 0.500000 0.000000 Fe
