Li4 Mn4 Zn4 Sn4
1.0
6.330502 0.000000 0.000000
-0.000000 6.330502 0.000000
0.000000 0.000000 6.330502
Li Mn Zn Sn
4 4 4 4
direct
0.000000 0.000000 0.000000 Li
0.000000 0.500000 0.500000 Li
0.500000 0.000000 0.500000 Li
0.500000 0.500000 0.000000 Li
0.500000 0.000000 0.000000 Mn
0.500000 0.500000 0.500000 Mn
0.000000 0.000000 0.500000 Mn
0.000000 0.500000 0.000000 Mn
0.250000 0.250000 0.250000 Zn
0.250000 0.750000 0.750000 Zn
0.750000 0.250000 0.750000 Zn
0.750000 0.750000 0.250000 Zn
0.250000 0.250000 0.750000 Sn
0.250000 0.750000 0.250000 Sn
0.750000 0.250000 0.250000 Sn
0.750000 0.750000 0.750000 Sn
