Nb4 Zn4 Fe4 Os4
1.0
6.113686 0.000000 0.000000
-0.000000 6.113686 0.000000
0.000000 0.000000 6.113686
Nb Zn Fe Os
4 4 4 4
direct
0.000000 0.000000 0.500000 Nb
0.000000 0.500000 0.000000 Nb
0.500000 0.000000 0.000000 Nb
0.500000 0.500000 0.500000 Nb
0.500000 0.000000 0.500000 Zn
0.500000 0.500000 0.000000 Zn
0.000000 0.000000 0.000000 Zn
0.000000 0.500000 0.500000 Zn
0.750000 0.250000 0.750000 Fe
0.750000 0.750000 0.250000 Fe
0.250000 0.250000 0.250000 Fe
0.250000 0.750000 0.750000 Fe
0.750000 0.250000 0.250000 Os
0.750000 0.750000 0.750000 Os
0.250000 0.250000 0.750000 Os
0.250000 0.750000 0.250000 Os
