Mg4 Mn4 Sn4 Ru4
1.0
6.387976 0.000000 0.000000
-0.000000 6.387976 0.000000
0.000000 0.000000 6.387976
Mg Mn Sn Ru
4 4 4 4
direct
0.500000 0.500000 0.500000 Mg
0.500000 0.000000 0.000000 Mg
0.000000 0.500000 0.000000 Mg
0.000000 0.000000 0.500000 Mg
0.750000 0.250000 0.750000 Mn
0.750000 0.750000 0.250000 Mn
0.250000 0.250000 0.250000 Mn
0.250000 0.750000 0.750000 Mn
0.500000 0.000000 0.500000 Sn
0.500000 0.500000 0.000000 Sn
0.000000 0.000000 0.000000 Sn
0.000000 0.500000 0.500000 Sn
0.750000 0.250000 0.250000 Ru
0.750000 0.750000 0.750000 Ru
0.250000 0.250000 0.750000 Ru
0.250000 0.750000 0.250000 Ru
