Hf4 Fe4 Sn4 Rh4
1.0
6.380658 0.000000 0.000000
-0.000000 6.380658 0.000000
0.000000 0.000000 6.380658
Hf Fe Sn Rh
4 4 4 4
direct
0.250000 0.750000 0.250000 Hf
0.250000 0.250000 0.750000 Hf
0.750000 0.750000 0.750000 Hf
0.750000 0.250000 0.250000 Hf
0.500000 0.500000 0.500000 Fe
0.500000 0.000000 0.000000 Fe
0.000000 0.500000 0.000000 Fe
0.000000 0.000000 0.500000 Fe
0.250000 0.250000 0.250000 Sn
0.250000 0.750000 0.750000 Sn
0.750000 0.250000 0.750000 Sn
0.750000 0.750000 0.250000 Sn
0.500000 0.500000 0.000000 Rh
0.500000 0.000000 0.500000 Rh
0.000000 0.500000 0.500000 Rh
0.000000 0.000000 0.000000 Rh
