Ti4 Fe4 Cu4 Sn4
1.0
6.180232 0.000000 0.000000
-0.000000 6.180232 0.000000
0.000000 0.000000 6.180232
Ti Fe Cu Sn
4 4 4 4
direct
0.250000 0.250000 0.250000 Ti
0.250000 0.750000 0.750000 Ti
0.750000 0.250000 0.750000 Ti
0.750000 0.750000 0.250000 Ti
0.000000 0.500000 0.000000 Fe
0.000000 0.000000 0.500000 Fe
0.500000 0.500000 0.500000 Fe
0.500000 0.000000 0.000000 Fe
0.000000 0.000000 0.000000 Cu
0.000000 0.500000 0.500000 Cu
0.500000 0.000000 0.500000 Cu
0.500000 0.500000 0.000000 Cu
0.250000 0.250000 0.750000 Sn
0.250000 0.750000 0.250000 Sn
0.750000 0.250000 0.250000 Sn
0.750000 0.750000 0.750000 Sn
