Mn4 In4 Co4 Pt4
1.0
6.234814 0.000000 0.000000
-0.000000 6.234814 0.000000
0.000000 0.000000 6.234814
Mn In Co Pt
4 4 4 4
direct
0.250000 0.750000 0.250000 Mn
0.250000 0.250000 0.750000 Mn
0.750000 0.750000 0.750000 Mn
0.750000 0.250000 0.250000 Mn
0.250000 0.250000 0.250000 In
0.250000 0.750000 0.750000 In
0.750000 0.250000 0.750000 In
0.750000 0.750000 0.250000 In
0.500000 0.500000 0.500000 Co
0.500000 0.000000 0.000000 Co
0.000000 0.500000 0.000000 Co
0.000000 0.000000 0.500000 Co
0.500000 0.500000 0.000000 Pt
0.500000 0.000000 0.500000 Pt
0.000000 0.500000 0.500000 Pt
0.000000 0.000000 0.000000 Pt
