Mn4 Be4 Ga4 Ir4
1.0
5.855060 0.000000 0.000000
-0.000000 5.855060 0.000000
0.000000 0.000000 5.855060
Mn Be Ga Ir
4 4 4 4
direct
0.250000 0.250000 0.250000 Mn
0.250000 0.750000 0.750000 Mn
0.750000 0.250000 0.750000 Mn
0.750000 0.750000 0.250000 Mn
0.500000 0.000000 0.000000 Be
0.500000 0.500000 0.500000 Be
0.000000 0.000000 0.500000 Be
0.000000 0.500000 0.000000 Be
0.000000 0.000000 0.000000 Ga
0.000000 0.500000 0.500000 Ga
0.500000 0.000000 0.500000 Ga
0.500000 0.500000 0.000000 Ga
0.250000 0.250000 0.750000 Ir
0.250000 0.750000 0.250000 Ir
0.750000 0.250000 0.250000 Ir
0.750000 0.750000 0.750000 Ir
