Hf4 Co4 Sn4 Ir4
1.0
6.420836 0.000000 0.000000
-0.000000 6.420836 0.000000
0.000000 0.000000 6.420836
Hf Co Sn Ir
4 4 4 4
direct
0.500000 0.500000 0.500000 Hf
0.500000 0.000000 0.000000 Hf
0.000000 0.500000 0.000000 Hf
0.000000 0.000000 0.500000 Hf
0.750000 0.250000 0.750000 Co
0.750000 0.750000 0.250000 Co
0.250000 0.250000 0.250000 Co
0.250000 0.750000 0.750000 Co
0.500000 0.000000 0.500000 Sn
0.500000 0.500000 0.000000 Sn
0.000000 0.000000 0.000000 Sn
0.000000 0.500000 0.500000 Sn
0.750000 0.250000 0.250000 Ir
0.750000 0.750000 0.750000 Ir
0.250000 0.250000 0.750000 Ir
0.250000 0.750000 0.250000 Ir
