Cr4 Ga4 Fe4 Co4
1.0
5.706128 0.000000 0.000000
-0.000000 5.706128 0.000000
0.000000 0.000000 5.706128
Cr Ga Fe Co
4 4 4 4
direct
0.250000 0.250000 0.250000 Cr
0.250000 0.750000 0.750000 Cr
0.750000 0.250000 0.750000 Cr
0.750000 0.750000 0.250000 Cr
0.250000 0.250000 0.750000 Ga
0.250000 0.750000 0.250000 Ga
0.750000 0.250000 0.250000 Ga
0.750000 0.750000 0.750000 Ga
0.500000 0.000000 0.000000 Fe
0.500000 0.500000 0.500000 Fe
0.000000 0.000000 0.500000 Fe
0.000000 0.500000 0.000000 Fe
0.000000 0.000000 0.000000 Co
0.000000 0.500000 0.500000 Co
0.500000 0.000000 0.500000 Co
0.500000 0.500000 0.000000 Co
