Cr4 Ga4 Co4 Ni4
1.0
5.720238 0.000000 0.000000
-0.000000 5.720238 0.000000
0.000000 0.000000 5.720238
Cr Ga Co Ni
4 4 4 4
direct
0.750000 0.250000 0.750000 Cr
0.750000 0.750000 0.250000 Cr
0.250000 0.250000 0.250000 Cr
0.250000 0.750000 0.750000 Cr
0.250000 0.250000 0.750000 Ga
0.250000 0.750000 0.250000 Ga
0.750000 0.250000 0.250000 Ga
0.750000 0.750000 0.750000 Ga
0.000000 0.000000 0.000000 Co
0.000000 0.500000 0.500000 Co
0.500000 0.000000 0.500000 Co
0.500000 0.500000 0.000000 Co
0.000000 0.000000 0.500000 Ni
0.000000 0.500000 0.000000 Ni
0.500000 0.000000 0.000000 Ni
0.500000 0.500000 0.500000 Ni
