Mn4 Al4 Fe4 Re4
1.0
5.810144 0.000000 0.000000
-0.000000 5.810144 0.000000
0.000000 0.000000 5.810144
Mn Al Fe Re
4 4 4 4
direct
0.250000 0.250000 0.750000 Mn
0.250000 0.750000 0.250000 Mn
0.750000 0.250000 0.250000 Mn
0.750000 0.750000 0.750000 Mn
0.000000 0.000000 0.000000 Al
0.000000 0.500000 0.500000 Al
0.500000 0.000000 0.500000 Al
0.500000 0.500000 0.000000 Al
0.250000 0.250000 0.250000 Fe
0.250000 0.750000 0.750000 Fe
0.750000 0.250000 0.750000 Fe
0.750000 0.750000 0.250000 Fe
0.500000 0.000000 0.000000 Re
0.500000 0.500000 0.500000 Re
0.000000 0.000000 0.500000 Re
0.000000 0.500000 0.000000 Re
