Zn4 Co4 Sn4 Rh4
1.0
6.150232 0.000000 0.000000
-0.000000 6.150232 0.000000
0.000000 0.000000 6.150232
Zn Co Sn Rh
4 4 4 4
direct
0.750000 0.250000 0.250000 Zn
0.750000 0.750000 0.750000 Zn
0.250000 0.250000 0.750000 Zn
0.250000 0.750000 0.250000 Zn
0.500000 0.500000 0.500000 Co
0.500000 0.000000 0.000000 Co
0.000000 0.500000 0.000000 Co
0.000000 0.000000 0.500000 Co
0.250000 0.250000 0.250000 Sn
0.250000 0.750000 0.750000 Sn
0.750000 0.250000 0.750000 Sn
0.750000 0.750000 0.250000 Sn
0.500000 0.500000 0.000000 Rh
0.500000 0.000000 0.500000 Rh
0.000000 0.500000 0.500000 Rh
0.000000 0.000000 0.000000 Rh
