Be4 Fe4 Ni4 Ge4
1.0
5.532244 0.000000 0.000000
-0.000000 5.532244 0.000000
0.000000 0.000000 5.532244
Be Fe Ni Ge
4 4 4 4
direct
0.500000 0.500000 0.500000 Be
0.500000 0.000000 0.000000 Be
0.000000 0.500000 0.000000 Be
0.000000 0.000000 0.500000 Be
0.250000 0.250000 0.250000 Fe
0.250000 0.750000 0.750000 Fe
0.750000 0.250000 0.750000 Fe
0.750000 0.750000 0.250000 Fe
0.750000 0.250000 0.250000 Ni
0.750000 0.750000 0.750000 Ni
0.250000 0.250000 0.750000 Ni
0.250000 0.750000 0.250000 Ni
0.500000 0.500000 0.000000 Ge
0.500000 0.000000 0.500000 Ge
0.000000 0.500000 0.500000 Ge
0.000000 0.000000 0.000000 Ge
