Ni2Co1Sb1_A2BC.004:tI8,I-4m2  [BCT,BCT2,  [BCT,BCT2,tI8] (STD_PRIM doi:10.1016/j.commatsci.2010.05.010)  [TET,TET,tP8] (STD_CONV doi:10.1016/j.commatsci.2010.05.010)
1.000000
   3.91306674596466   0.00000000000000   0.00000000000000
   0.00000000000000   3.91306674596466   0.00000000000000
   0.00000000000000   0.00000000000000   6.53752480794684
Ni Co Sb 
4 2 2 
Direct(8) [A4B2C2] 
  -0.00000000000000   0.00000000000000   0.50000000000000  Ni    
   0.50000000000000   0.50000000000000   0.00000000000000  Ni    
   0.50000000000000   0.00000000000000   0.25000000000000  Ni    
   0.00000000000000   0.50000000000000   0.75000000000000  Ni    
   0.00000000000000   0.50000000000000   0.25000000000000  Co    
   0.50000000000000   0.00000000000000   0.75000000000000  Co    
   0.00000000000000   0.00000000000000   0.00000000000000  Sb    
   0.50000000000000   0.50000000000000   0.50000000000000  Sb    
