Au2Cd1Y1_A2BC.003:tI8,I4/mmm  [TET,TET,t  [TET,TET,tP8] (STD_CONV doi:10.1016/j.commatsci.2010.05.010)
1.000000
   4.91804425656247   0.00000000000000   0.00000000000000
   0.00000000000000   4.91804425656247   0.00000000000000
   0.00000000000000   0.00000000000000   7.03679196888490
Au Cd Y 
4 2 2 
Direct(8) [A4B2C2] 
   0.50000000000000   0.00000000000000   0.25000000000000  Au    
   0.00000000000000   0.50000000000000   0.75000000000000  Au    
  -0.00000000000000   0.50000000000000   0.25000000000000  Au    
   0.50000000000000   0.00000000000000   0.75000000000000  Au    
  -0.00000000000000   0.00000000000000   0.50000000000000  Cd    
   0.50000000000000   0.50000000000000  -0.00000000000000  Cd    
   0.00000000000000   0.00000000000000   0.00000000000000  Y     
   0.50000000000000   0.50000000000000   0.50000000000000  Y     
