Zr2Cu1Os1_A2BC.003:tI8,I4/mmm  [TET,TET,  [CUB,CUB,cP16] (STD_CONV doi:10.1016/j.commatsci.2010.05.010)
1.000000
   6.55310985113113   0.00000000000000   0.00000000000000
   0.00000000000000   6.55310985113113   0.00000000000000
   0.00000000000000   0.00000000000000   6.55310985113113
Zr Cu Os 
8 4 4 
Direct(16) [A8B4C4] 
   0.25000000000000   0.25000000000000   0.25000000000000  Zr    
   0.75000000000000   0.75000000000000   0.25000000000000  Zr    
   0.75000000000000   0.25000000000000   0.75000000000000  Zr    
   0.25000000000000   0.75000000000000   0.75000000000000  Zr    
   0.75000000000000   0.25000000000000   0.25000000000000  Zr    
   0.25000000000000   0.75000000000000   0.25000000000000  Zr    
   0.25000000000000   0.25000000000000   0.75000000000000  Zr    
   0.75000000000000   0.75000000000000   0.75000000000000  Zr    
   0.50000000000000   0.00000000000000   0.00000000000000  Cu    
  -0.00000000000000   0.50000000000000   0.00000000000000  Cu    
  -0.00000000000000   0.00000000000000   0.50000000000000  Cu    
   0.50000000000000   0.50000000000000   0.50000000000000  Cu    
  -0.00000000000000   0.00000000000000   0.00000000000000  Os    
   0.50000000000000   0.50000000000000   0.00000000000000  Os    
   0.50000000000000   0.00000000000000   0.50000000000000  Os    
  -0.00000000000000   0.50000000000000   0.50000000000000  Os    
