Co2Ti1Zn1_A2BC.003:tI8,I4/mmm  [TET,TET,  [CUB,CUB,cP16] (STD_CONV doi:10.1016/j.commatsci.2010.05.010)
1.000000
   5.79050899657068   0.00000000000000   0.00000000000000
   0.00000000000000   5.79050899657068   0.00000000000000
   0.00000000000000   0.00000000000000   5.79050899657068
Co Ti Zn 
8 4 4 
Direct(16) [A8B4C4] 
   0.25000000000000   0.25000000000000   0.25000000000000  Co    
   0.75000000000000   0.75000000000000   0.25000000000000  Co    
   0.75000000000000   0.25000000000000   0.75000000000000  Co    
   0.25000000000000   0.75000000000000   0.75000000000000  Co    
   0.75000000000000   0.25000000000000   0.25000000000000  Co    
   0.25000000000000   0.75000000000000   0.25000000000000  Co    
   0.25000000000000   0.25000000000000   0.75000000000000  Co    
   0.75000000000000   0.75000000000000   0.75000000000000  Co    
   0.50000000000000  -0.00000000000000   0.00000000000000  Ti    
   0.00000000000000   0.50000000000000   0.00000000000000  Ti    
   0.00000000000000  -0.00000000000000   0.50000000000000  Ti    
   0.50000000000000   0.50000000000000   0.50000000000000  Ti    
   0.00000000000000   0.00000000000000   0.00000000000000  Zn    
   0.50000000000000   0.50000000000000   0.00000000000000  Zn    
   0.50000000000000   0.00000000000000   0.50000000000000  Zn    
   0.00000000000000   0.50000000000000   0.50000000000000  Zn    
