Mn2Pt1Ge1_A2BC.003:tI8,I4/mmm  [BCT,BCT2  [BCT,BCT2,tI8] (STD_PRIM doi:10.1016/j.commatsci.2010.05.010)  [TET,TET,tP8] (STD_CONV doi:10.1016/j.commatsci.2010.05.010)
1.000000
   3.88299557707816   0.00000000000000   0.00000000000000
   0.00000000000000   3.88299557707816   0.00000000000000
   0.00000000000000   0.00000000000000   7.64207041427950
Mn Pt Ge 
4 2 2 
Direct(8) [A4B2C2] 
  -0.00000000000000   0.50000000000000   0.25000000000000  Mn    
   0.50000000000000   0.00000000000000   0.75000000000000  Mn    
   0.50000000000000   0.00000000000000   0.25000000000000  Mn    
   0.00000000000000   0.50000000000000   0.75000000000000  Mn    
  -0.00000000000000   0.00000000000000   0.50000000000000  Pt    
   0.50000000000000   0.50000000000000   0.00000000000000  Pt    
   0.00000000000000   0.00000000000000   0.00000000000000  Ge    
   0.50000000000000   0.50000000000000   0.50000000000000  Ge    
