Co2Ta1Zn1_A2BC.003:tI8,I4/mmm  [TET,TET,  [TET,TET,tP8] (STD_CONV doi:10.1016/j.commatsci.2010.05.010)
1.000000
   4.00093071583939   0.00000000000000   0.00000000000000
   0.00000000000000   4.00093071583939   0.00000000000000
   0.00000000000000   0.00000000000000   6.39939898213906
Co Ta Zn 
4 2 2 
Direct(8) [A4B2C2] 
   0.00000000000000   0.50000000000000   0.25000000000000  Co    
   0.50000000000000   0.00000000000000   0.75000000000000  Co    
   0.50000000000000   0.00000000000000   0.25000000000000  Co    
   0.00000000000000   0.50000000000000   0.75000000000000  Co    
  -0.00000000000000   0.00000000000000   0.50000000000000  Ta    
   0.50000000000000   0.50000000000000   0.00000000000000  Ta    
   0.00000000000000   0.00000000000000   0.00000000000000  Zn    
   0.50000000000000   0.50000000000000   0.50000000000000  Zn    
