Mo2Nb1W1_A2BC.003:tI8,I4/mmm  [TET,TET,t  [CUB,CUB,cP16] (STD_CONV doi:10.1016/j.commatsci.2010.05.010)
1.000000
   6.39418178595846   0.00000000000000   0.00000000000000
   0.00000000000000   6.39418178595846   0.00000000000000
   0.00000000000000   0.00000000000000   6.39418178595846
Mo Nb W 
8 4 4 
Direct(16) [A8B4C4] 
   0.25000000000000   0.25000000000000   0.25000000000000  Mo    
   0.75000000000000   0.75000000000000   0.25000000000000  Mo    
   0.75000000000000   0.25000000000000   0.75000000000000  Mo    
   0.25000000000000   0.75000000000000   0.75000000000000  Mo    
   0.75000000000000   0.25000000000000   0.25000000000000  Mo    
   0.25000000000000   0.75000000000000   0.25000000000000  Mo    
   0.25000000000000   0.25000000000000   0.75000000000000  Mo    
   0.75000000000000   0.75000000000000   0.75000000000000  Mo    
   0.50000000000000   0.00000000000000   0.00000000000000  Nb    
   0.00000000000000   0.50000000000000   0.00000000000000  Nb    
   0.00000000000000   0.00000000000000   0.50000000000000  Nb    
   0.50000000000000   0.50000000000000   0.50000000000000  Nb    
   0.00000000000000   0.00000000000000   0.00000000000000  W     
   0.50000000000000   0.50000000000000   0.00000000000000  W     
   0.50000000000000   0.00000000000000   0.50000000000000  W     
   0.00000000000000   0.50000000000000   0.50000000000000  W     
