Ru2Ta1Ti1_A2BC.003:tI8,I4/mmm  [TET,TET,  [CUB,CUB,cP16] (STD_CONV doi:10.1016/j.commatsci.2010.05.010)
1.000000
   6.25413156279965   0.00000000000000   0.00000000000000
   0.00000000000000   6.25413156279965   0.00000000000000
   0.00000000000000   0.00000000000000   6.25413156279965
Ru Ta Ti 
8 4 4 
Direct(16) [A8B4C4] 
   0.25000000000000   0.25000000000000   0.25000000000000  Ru    
   0.75000000000000   0.75000000000000   0.25000000000000  Ru    
   0.75000000000000   0.25000000000000   0.75000000000000  Ru    
   0.25000000000000   0.75000000000000   0.75000000000000  Ru    
   0.75000000000000   0.25000000000000   0.25000000000000  Ru    
   0.25000000000000   0.75000000000000   0.25000000000000  Ru    
   0.25000000000000   0.25000000000000   0.75000000000000  Ru    
   0.75000000000000   0.75000000000000   0.75000000000000  Ru    
   0.50000000000000   0.00000000000000   0.00000000000000  Ta    
   0.00000000000000   0.50000000000000   0.00000000000000  Ta    
   0.00000000000000   0.00000000000000   0.50000000000000  Ta    
   0.50000000000000   0.50000000000000   0.50000000000000  Ta    
  -0.00000000000000   0.00000000000000   0.00000000000000  Ti    
   0.50000000000000   0.50000000000000   0.00000000000000  Ti    
   0.50000000000000   0.00000000000000   0.50000000000000  Ti    
  -0.00000000000000   0.50000000000000   0.50000000000000  Ti    
