Co2Nb1Zn1_A2BC.003:tI8,I4/mmm  [TET,TET,  [TET,TET,tP8] (STD_CONV doi:10.1016/j.commatsci.2010.05.010)
1.000000
   3.98052929075312   0.00000000000000   0.00000000000000
   0.00000000000000   3.98052929075312   0.00000000000000
   0.00000000000000   0.00000000000000   6.49639162433882
Co Nb Zn 
4 2 2 
Direct(8) [A4B2C2] 
   0.50000000000000  -0.00000000000000   0.25000000000000  Co    
  -0.00000000000000   0.50000000000000   0.75000000000000  Co    
  -0.00000000000000   0.50000000000000   0.25000000000000  Co    
   0.50000000000000   0.00000000000000   0.75000000000000  Co    
  -0.00000000000000   0.00000000000000   0.50000000000000  Nb    
   0.50000000000000   0.50000000000000   0.00000000000000  Nb    
   0.00000000000000   0.00000000000000   0.00000000000000  Zn    
   0.50000000000000   0.50000000000000   0.50000000000000  Zn    
