Rh2Mn1Pb1_A2BC.003:tI8,I4/mmm  [TET,TET,  [TET,TET,tP8] (STD_CONV doi:10.1016/j.commatsci.2010.05.010)
1.000000
   4.33654599812915   0.00000000000000   0.00000000000000
   0.00000000000000   4.33654599812915   0.00000000000000
   0.00000000000000   0.00000000000000   6.87878089635593
Rh Mn Pb 
4 2 2 
Direct(8) [A4B2C2] 
  -0.00000000000000   0.50000000000000   0.25000000000000  Rh    
   0.50000000000000   0.00000000000000   0.75000000000000  Rh    
   0.50000000000000   0.00000000000000   0.25000000000000  Rh    
  -0.00000000000000   0.50000000000000   0.75000000000000  Rh    
   0.00000000000000   0.00000000000000   0.50000000000000  Mn    
   0.50000000000000   0.50000000000000   0.00000000000000  Mn    
   0.00000000000000   0.00000000000000   0.00000000000000  Pb    
   0.50000000000000   0.50000000000000   0.50000000000000  Pb    
