Pd2Mn1Au1_A2BC.003:tI8,I4/mmm  [TET,TET,  [TET,TET,tP8] (STD_CONV doi:10.1016/j.commatsci.2010.05.010)
1.000000
   4.02882998563911   0.00000000000000   0.00000000000000
   0.00000000000000   4.02882998563911   0.00000000000000
   0.00000000000000   0.00000000000000   7.72709181353451
Pd Mn Au 
4 2 2 
Direct(8) [A4B2C2] 
  -0.00000000000000   0.50000000000000   0.25000000000000  Pd    
   0.50000000000000   0.00000000000000   0.75000000000000  Pd    
   0.50000000000000  -0.00000000000000   0.25000000000000  Pd    
   0.00000000000000   0.50000000000000   0.75000000000000  Pd    
   0.00000000000000   0.00000000000000   0.50000000000000  Mn    
   0.50000000000000   0.50000000000000   0.00000000000000  Mn    
   0.00000000000000   0.00000000000000   0.00000000000000  Au    
   0.50000000000000   0.50000000000000   0.50000000000000  Au    
