Co2Mn1Si1_A2BC.003:tI8,I4/mmm  [TET,TET,  [TET,TET,tP8] (STD_CONV doi:10.1016/j.commatsci.2010.05.010)
1.000000
   3.94862883842078   0.00000000000000   0.00000000000000
   0.00000000000000   3.94862883842078   0.00000000000000
   0.00000000000000   0.00000000000000   5.62257441532488
Co Mn Si 
4 2 2 
Direct(8) [A4B2C2] 
   0.00000000000000   0.50000000000000   0.25000000000000  Co    
   0.50000000000000  -0.00000000000000   0.75000000000000  Co    
   0.50000000000000   0.00000000000000   0.25000000000000  Co    
  -0.00000000000000   0.50000000000000   0.75000000000000  Co    
   0.00000000000000   0.00000000000000   0.50000000000000  Mn    
   0.50000000000000   0.50000000000000   0.00000000000000  Mn    
   0.00000000000000   0.00000000000000   0.00000000000000  Si    
   0.50000000000000   0.50000000000000   0.50000000000000  Si    
