Tc2Hf1Nb1_A2BC.003:tI8,I4/mmm  [TET,TET,  [CUB,CUB,cP16] (STD_CONV doi:10.1016/j.commatsci.2010.05.010)
1.000000
   6.44138538305944   0.00000000000000   0.00000000000000
   0.00000000000000   6.44138538305944   0.00000000000000
   0.00000000000000   0.00000000000000   6.44138538305944
Tc Hf Nb 
8 4 4 
Direct(16) [A8B4C4] 
   0.75000000000000   0.25000000000000   0.25000000000000  Tc    
   0.25000000000000   0.75000000000000   0.25000000000000  Tc    
   0.25000000000000   0.25000000000000   0.75000000000000  Tc    
   0.75000000000000   0.75000000000000   0.75000000000000  Tc    
   0.25000000000000   0.25000000000000   0.25000000000000  Tc    
   0.75000000000000   0.75000000000000   0.25000000000000  Tc    
   0.75000000000000   0.25000000000000   0.75000000000000  Tc    
   0.25000000000000   0.75000000000000   0.75000000000000  Tc    
   0.50000000000000   0.00000000000000   0.00000000000000  Hf    
   0.00000000000000   0.50000000000000   0.00000000000000  Hf    
   0.00000000000000   0.00000000000000   0.50000000000000  Hf    
   0.50000000000000   0.50000000000000   0.50000000000000  Hf    
   0.00000000000000   0.00000000000000   0.00000000000000  Nb    
   0.50000000000000   0.50000000000000   0.00000000000000  Nb    
   0.50000000000000   0.00000000000000   0.50000000000000  Nb    
   0.00000000000000   0.50000000000000   0.50000000000000  Nb    
