Ta2Os1Tc1_A2BC.003:tI8,I4/mmm  [TET,TET,  [CUB,CUB,cP16] (STD_CONV doi:10.1016/j.commatsci.2010.05.010)
1.000000
   6.36436438089195   0.00000000000000   0.00000000000000
   0.00000000000000   6.36436438089195   0.00000000000000
   0.00000000000000   0.00000000000000   6.36436438089195
Ta Os Tc 
8 4 4 
Direct(16) [A8B4C4] 
   0.75000000000000   0.25000000000000   0.25000000000000  Ta    
   0.25000000000000   0.75000000000000   0.25000000000000  Ta    
   0.25000000000000   0.25000000000000   0.75000000000000  Ta    
   0.75000000000000   0.75000000000000   0.75000000000000  Ta    
   0.25000000000000   0.25000000000000   0.25000000000000  Ta    
   0.75000000000000   0.75000000000000   0.25000000000000  Ta    
   0.75000000000000   0.25000000000000   0.75000000000000  Ta    
   0.25000000000000   0.75000000000000   0.75000000000000  Ta    
   0.50000000000000   0.00000000000000   0.00000000000000  Os    
   0.00000000000000   0.50000000000000   0.00000000000000  Os    
   0.00000000000000   0.00000000000000   0.50000000000000  Os    
   0.50000000000000   0.50000000000000   0.50000000000000  Os    
   0.00000000000000   0.00000000000000   0.00000000000000  Tc    
   0.50000000000000   0.50000000000000   0.00000000000000  Tc    
   0.50000000000000   0.00000000000000   0.50000000000000  Tc    
   0.00000000000000   0.50000000000000   0.50000000000000  Tc    
