Sc2Ir1Ni1_A2BC.003:tI8,I4/mmm  [TET,TET,  [TET,TET,tP8] (STD_CONV doi:10.1016/j.commatsci.2010.05.010)
1.000000
   4.53767025042106   0.00000000000000   0.00000000000000
   0.00000000000000   4.53767025042106   0.00000000000000
   0.00000000000000   0.00000000000000   6.36936655885548
Sc Ir Ni 
4 2 2 
Direct(8) [A4B2C2] 
   0.50000000000000   0.00000000000000   0.25000000000000  Sc    
  -0.00000000000000   0.50000000000000   0.75000000000000  Sc    
  -0.00000000000000   0.50000000000000   0.25000000000000  Sc    
   0.50000000000000   0.00000000000000   0.75000000000000  Sc    
   0.00000000000000   0.00000000000000   0.50000000000000  Ir    
   0.50000000000000   0.50000000000000   0.00000000000000  Ir    
   0.00000000000000   0.00000000000000   0.00000000000000  Ni    
   0.50000000000000   0.50000000000000   0.50000000000000  Ni    
