Rh2Nb1Zn1_A2BC.003:tI8,I4/mmm  [TET,TET,  [TET,TET,tP8] (STD_CONV doi:10.1016/j.commatsci.2010.05.010)
1.000000
   4.10549912468860   0.00000000000000   0.00000000000000
   0.00000000000000   4.10549912468860   0.00000000000000
   0.00000000000000   0.00000000000000   7.07836569040288
Rh Nb Zn 
4 2 2 
Direct(8) [A4B2C2] 
   0.00000000000000   0.50000000000000   0.25000000000000  Rh    
   0.50000000000000  -0.00000000000000   0.75000000000000  Rh    
   0.50000000000000   0.00000000000000   0.25000000000000  Rh    
   0.00000000000000   0.50000000000000   0.75000000000000  Rh    
   0.00000000000000   0.00000000000000   0.50000000000000  Nb    
   0.50000000000000   0.50000000000000   0.00000000000000  Nb    
   0.00000000000000   0.00000000000000   0.00000000000000  Zn    
   0.50000000000000   0.50000000000000   0.50000000000000  Zn    
