Fe2Cu1Al1_A2BC.003:tI8,I4/mmm#139:BCT2    [BCT,BCT2,tI8] (STD_PRIM doi:10.1016/j.commatsci.2010.05.010)  [TET,TET,tP8] (STD_CONV doi:10.1016/j.commatsci.2010.05.010)
1.000000
   3.56838175742898   0.00000000000000   0.00000000000000
   0.00000000000000   3.56838175742898   0.00000000000000
   0.00000000000000   0.00000000000000   7.70113235571408
Fe Cu Al 
4 2 2 
Direct(8) [A4B2C2] 
   0.50000000000000   0.00000000000000   0.25000000000000  Fe    
   0.00000000000000   0.50000000000000   0.75000000000000  Fe    
   0.00000000000000   0.50000000000000   0.25000000000000  Fe    
   0.50000000000000  -0.00000000000000   0.75000000000000  Fe    
   0.00000000000000   0.00000000000000   0.50000000000000  Cu    
   0.50000000000000   0.50000000000000  -0.00000000000000  Cu    
   0.00000000000000   0.00000000000000   0.00000000000000  Al    
   0.50000000000000   0.50000000000000   0.50000000000000  Al    
