Pd2Ag1Hg1_A2BC.003:tI8,I4/mmm  [TET,TET,  [TET,TET,tP8] (STD_CONV doi:10.1016/j.commatsci.2010.05.010)
1.000000
   4.34322363097752   0.00000000000000   0.00000000000000
   0.00000000000000   4.34322363097752   0.00000000000000
   0.00000000000000   0.00000000000000   7.30949830595523
Pd Ag Hg 
4 2 2 
Direct(8) [A4B2C2] 
  -0.00000000000000   0.50000000000000   0.25000000000000  Pd    
   0.50000000000000   0.00000000000000   0.75000000000000  Pd    
   0.50000000000000   0.00000000000000   0.25000000000000  Pd    
  -0.00000000000000   0.50000000000000   0.75000000000000  Pd    
  -0.00000000000000   0.00000000000000   0.50000000000000  Ag    
   0.50000000000000   0.50000000000000   0.00000000000000  Ag    
   0.00000000000000   0.00000000000000   0.00000000000000  Hg    
   0.50000000000000   0.50000000000000   0.50000000000000  Hg    
