Co2Mo1Ga1_A2BC.003:tI8,I4/mmm#139:BCT2    [BCT,BCT2,tI8] (STD_PRIM doi:10.1016/j.commatsci.2010.05.010)  [TET,TET,tP8] (STD_CONV doi:10.1016/j.commatsci.2010.05.010)
1.000000
   3.79113081118766   0.00000000000000   0.00000000000000
   0.00000000000000   3.79113081118766   0.00000000000000
   0.00000000000000   0.00000000000000   7.00860485542182
Co Mo Ga 
4 2 2 
Direct(8) [A4B2C2] 
   0.50000000000000   0.00000000000000   0.25000000000000  Co    
  -0.00000000000000   0.50000000000000   0.75000000000000  Co    
   0.00000000000000   0.50000000000000   0.25000000000000  Co    
   0.50000000000000  -0.00000000000000   0.75000000000000  Co    
  -0.00000000000000   0.00000000000000   0.50000000000000  Mo    
   0.50000000000000   0.50000000000000   0.00000000000000  Mo    
   0.00000000000000   0.00000000000000   0.00000000000000  Ga    
   0.50000000000000   0.50000000000000   0.50000000000000  Ga    
