Rh2Cu1Ta1_A2BC.001:cF16,Fm-3m  [CUB,CUB,  [CUB,CUB,cP16] (STD_CONV doi:10.1016/j.commatsci.2010.05.010)
1.000000
   6.13284340131784   0.00000000000000   0.00000000000000
   0.00000000000000   6.13284340131784   0.00000000000000
   0.00000000000000   0.00000000000000   6.13284340131784
Rh Cu Ta 
8 4 4 
Direct(16) [A8B4C4] 
   0.25000000000000   0.25000000000000   0.25000000000000  Rh    
   0.75000000000000   0.75000000000000   0.25000000000000  Rh    
   0.75000000000000   0.25000000000000   0.75000000000000  Rh    
   0.25000000000000   0.75000000000000   0.75000000000000  Rh    
   0.75000000000000   0.25000000000000   0.25000000000000  Rh    
   0.25000000000000   0.75000000000000   0.25000000000000  Rh    
   0.25000000000000   0.25000000000000   0.75000000000000  Rh    
   0.75000000000000   0.75000000000000   0.75000000000000  Rh    
   0.50000000000000  -0.00000000000000   0.00000000000000  Cu    
  -0.00000000000000   0.50000000000000   0.00000000000000  Cu    
  -0.00000000000000  -0.00000000000000   0.50000000000000  Cu    
   0.50000000000000   0.50000000000000   0.50000000000000  Cu    
   0.00000000000000   0.00000000000000   0.00000000000000  Ta    
   0.50000000000000   0.50000000000000   0.00000000000000  Ta    
   0.50000000000000   0.00000000000000   0.50000000000000  Ta    
   0.00000000000000   0.50000000000000   0.50000000000000  Ta    
