Nb2Mo1Re1_A2BC.001:cF16,Fm-3m  [CUB,CUB,  [CUB,CUB,cP16] (STD_CONV doi:10.1016/j.commatsci.2010.05.010)
1.000000
   6.42159451003861   0.00000000000000   0.00000000000000
   0.00000000000000   6.42159451003861   0.00000000000000
   0.00000000000000   0.00000000000000   6.42159451003861
Nb Mo Re 
8 4 4 
Direct(16) [A8B4C4] 
   0.25000000000000   0.25000000000000   0.25000000000000  Nb    
   0.75000000000000   0.75000000000000   0.25000000000000  Nb    
   0.75000000000000   0.25000000000000   0.75000000000000  Nb    
   0.25000000000000   0.75000000000000   0.75000000000000  Nb    
   0.75000000000000   0.25000000000000   0.25000000000000  Nb    
   0.25000000000000   0.75000000000000   0.25000000000000  Nb    
   0.25000000000000   0.25000000000000   0.75000000000000  Nb    
   0.75000000000000   0.75000000000000   0.75000000000000  Nb    
   0.50000000000000   0.00000000000000   0.00000000000000  Mo    
   0.00000000000000   0.50000000000000   0.00000000000000  Mo    
   0.00000000000000   0.00000000000000   0.50000000000000  Mo    
   0.50000000000000   0.50000000000000   0.50000000000000  Mo    
   0.00000000000000   0.00000000000000   0.00000000000000  Re    
   0.50000000000000   0.50000000000000   0.00000000000000  Re    
   0.50000000000000   0.00000000000000   0.50000000000000  Re    
   0.00000000000000   0.50000000000000   0.50000000000000  Re    
