Ni2Hf1Zn1_A2BC.001:cF16,Fm-3m  [CUB,CUB,  [CUB,CUB,cP16] (STD_CONV doi:10.1016/j.commatsci.2010.05.010)
1.000000
   6.05430828867687   0.00000000000000   0.00000000000000
   0.00000000000000   6.05430828867687   0.00000000000000
   0.00000000000000   0.00000000000000   6.05430828867687
Ni Hf Zn 
8 4 4 
Direct(16) [A8B4C4] 
   0.25000000000000   0.25000000000000   0.25000000000000  Ni    
   0.75000000000000   0.75000000000000   0.25000000000000  Ni    
   0.75000000000000   0.25000000000000   0.75000000000000  Ni    
   0.25000000000000   0.75000000000000   0.75000000000000  Ni    
   0.75000000000000   0.25000000000000   0.25000000000000  Ni    
   0.25000000000000   0.75000000000000   0.25000000000000  Ni    
   0.25000000000000   0.25000000000000   0.75000000000000  Ni    
   0.75000000000000   0.75000000000000   0.75000000000000  Ni    
   0.50000000000000   0.00000000000000   0.00000000000000  Hf    
   0.00000000000000   0.50000000000000   0.00000000000000  Hf    
   0.00000000000000   0.00000000000000   0.50000000000000  Hf    
   0.50000000000000   0.50000000000000   0.50000000000000  Hf    
   0.00000000000000   0.00000000000000   0.00000000000000  Zn    
   0.50000000000000   0.50000000000000   0.00000000000000  Zn    
   0.50000000000000   0.00000000000000   0.50000000000000  Zn    
   0.00000000000000   0.50000000000000   0.50000000000000  Zn    
