Hf2Re1Rh1_A2BC.001:cF16,Fm-3m  [CUB,CUB,  [CUB,CUB,cP16] (STD_CONV doi:10.1016/j.commatsci.2010.05.010)
1.000000
   6.52823522040316   0.00000000000000   0.00000000000000
   0.00000000000000   6.52823522040316   0.00000000000000
   0.00000000000000   0.00000000000000   6.52823522040316
Hf Re Rh 
8 4 4 
Direct(16) [A8B4C4] 
   0.75000000000000   0.25000000000000   0.25000000000000  Hf    
   0.25000000000000   0.75000000000000   0.25000000000000  Hf    
   0.25000000000000   0.25000000000000   0.75000000000000  Hf    
   0.75000000000000   0.75000000000000   0.75000000000000  Hf    
   0.25000000000000   0.25000000000000   0.25000000000000  Hf    
   0.75000000000000   0.75000000000000   0.25000000000000  Hf    
   0.75000000000000   0.25000000000000   0.75000000000000  Hf    
   0.25000000000000   0.75000000000000   0.75000000000000  Hf    
   0.50000000000000   0.00000000000000  -0.00000000000000  Re    
  -0.00000000000000   0.50000000000000  -0.00000000000000  Re    
  -0.00000000000000   0.00000000000000   0.50000000000000  Re    
   0.50000000000000   0.50000000000000   0.50000000000000  Re    
   0.00000000000000   0.00000000000000   0.00000000000000  Rh    
   0.50000000000000   0.50000000000000   0.00000000000000  Rh    
   0.50000000000000   0.00000000000000   0.50000000000000  Rh    
   0.00000000000000   0.50000000000000   0.50000000000000  Rh    
