Co2Fe1Sn1_A2BC.001:cF16,Fm-3m  [FCC,FCC,  [FCC,FCC,cF16] (STD_PRIM doi:10.1016/j.commatsci.2010.05.010)  [CUB,CUB,cP16] (STD_CONV doi:10.1016/j.commatsci.2010.05.010)
1.000000
   6.00227107687739   0.00000000000000   0.00000000000000
   0.00000000000000   6.00227107687739   0.00000000000000
   0.00000000000000   0.00000000000000   6.00227107687739
Co Fe Sn 
8 4 4 
Direct(16) [A8B4C4] 
   0.75000000000000   0.25000000000000   0.25000000000000  Co    
   0.25000000000000   0.75000000000000   0.25000000000000  Co    
   0.25000000000000   0.25000000000000   0.75000000000000  Co    
   0.75000000000000   0.75000000000000   0.75000000000000  Co    
   0.25000000000000   0.25000000000000   0.25000000000000  Co    
   0.75000000000000   0.75000000000000   0.25000000000000  Co    
   0.75000000000000   0.25000000000000   0.75000000000000  Co    
   0.25000000000000   0.75000000000000   0.75000000000000  Co    
   0.50000000000000   0.00000000000000   0.00000000000000  Fe    
   0.00000000000000   0.50000000000000   0.00000000000000  Fe    
   0.00000000000000   0.00000000000000   0.50000000000000  Fe    
   0.50000000000000   0.50000000000000   0.50000000000000  Fe    
   0.00000000000000   0.00000000000000   0.00000000000000  Sn    
   0.50000000000000   0.50000000000000   0.00000000000000  Sn    
   0.50000000000000   0.00000000000000   0.50000000000000  Sn    
   0.00000000000000   0.50000000000000   0.50000000000000  Sn    
