Sc2Cu1Ru1_A2BC.001:cF16,Fm-3m  [CUB,CUB,  [CUB,CUB,cP16] (STD_CONV doi:10.1016/j.commatsci.2010.05.010)
1.000000
   6.42674476655619   0.00000000000000   0.00000000000000
   0.00000000000000   6.42674476655619   0.00000000000000
   0.00000000000000   0.00000000000000   6.42674476655619
Sc Cu Ru 
8 4 4 
Direct(16) [A8B4C4] 
   0.75000000000000   0.25000000000000   0.25000000000000  Sc    
   0.25000000000000   0.75000000000000   0.25000000000000  Sc    
   0.25000000000000   0.25000000000000   0.75000000000000  Sc    
   0.75000000000000   0.75000000000000   0.75000000000000  Sc    
   0.25000000000000   0.25000000000000   0.25000000000000  Sc    
   0.75000000000000   0.75000000000000   0.25000000000000  Sc    
   0.75000000000000   0.25000000000000   0.75000000000000  Sc    
   0.25000000000000   0.75000000000000   0.75000000000000  Sc    
   0.50000000000000   0.00000000000000  -0.00000000000000  Cu    
  -0.00000000000000   0.50000000000000  -0.00000000000000  Cu    
  -0.00000000000000   0.00000000000000   0.50000000000000  Cu    
   0.50000000000000   0.50000000000000   0.50000000000000  Cu    
  -0.00000000000000   0.00000000000000   0.00000000000000  Ru    
   0.50000000000000   0.50000000000000   0.00000000000000  Ru    
   0.50000000000000   0.00000000000000   0.50000000000000  Ru    
  -0.00000000000000   0.50000000000000   0.50000000000000  Ru    
