Hg2Ag1La1_A2BC.001:cF16,Fm-3m  [CUB,CUB,  [CUB,CUB,cP16] (STD_CONV doi:10.1016/j.commatsci.2010.05.010)
1.000000
   7.32853933235389   0.00000000000000   0.00000000000000
   0.00000000000000   7.32853933235389   0.00000000000000
   0.00000000000000   0.00000000000000   7.32853933235389
Hg Ag La 
8 4 4 
Direct(16) [A8B4C4] 
   0.75000000000000   0.25000000000000   0.25000000000000  Hg    
   0.25000000000000   0.75000000000000   0.25000000000000  Hg    
   0.25000000000000   0.25000000000000   0.75000000000000  Hg    
   0.75000000000000   0.75000000000000   0.75000000000000  Hg    
   0.25000000000000   0.25000000000000   0.25000000000000  Hg    
   0.75000000000000   0.75000000000000   0.25000000000000  Hg    
   0.75000000000000   0.25000000000000   0.75000000000000  Hg    
   0.25000000000000   0.75000000000000   0.75000000000000  Hg    
   0.50000000000000   0.00000000000000   0.00000000000000  Ag    
  -0.00000000000000   0.50000000000000   0.00000000000000  Ag    
  -0.00000000000000   0.00000000000000   0.50000000000000  Ag    
   0.50000000000000   0.50000000000000   0.50000000000000  Ag    
   0.00000000000000   0.00000000000000   0.00000000000000  La    
   0.50000000000000   0.50000000000000   0.00000000000000  La    
   0.50000000000000   0.00000000000000   0.50000000000000  La    
   0.00000000000000   0.50000000000000   0.50000000000000  La    
