Ru2W1Zn1_A2BC.001:cF16,Fm-3m  [CUB,CUB,c  [CUB,CUB,cP16] (STD_CONV doi:10.1016/j.commatsci.2010.05.010)
1.000000
   6.12682469020493   0.00000000000000   0.00000000000000
   0.00000000000000   6.12682469020493   0.00000000000000
   0.00000000000000   0.00000000000000   6.12682469020493
Ru W Zn 
8 4 4 
Direct(16) [A8B4C4] 
   0.75000000000000   0.25000000000000   0.25000000000000  Ru    
   0.25000000000000   0.75000000000000   0.25000000000000  Ru    
   0.25000000000000   0.25000000000000   0.75000000000000  Ru    
   0.75000000000000   0.75000000000000   0.75000000000000  Ru    
   0.25000000000000   0.25000000000000   0.25000000000000  Ru    
   0.75000000000000   0.75000000000000   0.25000000000000  Ru    
   0.75000000000000   0.25000000000000   0.75000000000000  Ru    
   0.25000000000000   0.75000000000000   0.75000000000000  Ru    
   0.50000000000000   0.00000000000000   0.00000000000000  W     
  -0.00000000000000   0.50000000000000   0.00000000000000  W     
  -0.00000000000000   0.00000000000000   0.50000000000000  W     
   0.50000000000000   0.50000000000000   0.50000000000000  W     
   0.00000000000000   0.00000000000000   0.00000000000000  Zn    
   0.50000000000000   0.50000000000000   0.00000000000000  Zn    
   0.50000000000000   0.00000000000000   0.50000000000000  Zn    
   0.00000000000000   0.50000000000000   0.50000000000000  Zn    
