Cu2Ti1Zn1_A2BC.001:cF16,Fm-3m  [CUB,CUB,  [CUB,CUB,cP16] (STD_CONV doi:10.1016/j.commatsci.2010.05.010)
1.000000
   5.94010976663520   0.00000000000000   0.00000000000000
   0.00000000000000   5.94010976663520   0.00000000000000
   0.00000000000000   0.00000000000000   5.94010976663520
Cu Ti Zn 
8 4 4 
Direct(16) [A8B4C4] 
   0.75000000000000   0.25000000000000   0.25000000000000  Cu    
   0.25000000000000   0.75000000000000   0.25000000000000  Cu    
   0.25000000000000   0.25000000000000   0.75000000000000  Cu    
   0.75000000000000   0.75000000000000   0.75000000000000  Cu    
   0.25000000000000   0.25000000000000   0.25000000000000  Cu    
   0.75000000000000   0.75000000000000   0.25000000000000  Cu    
   0.75000000000000   0.25000000000000   0.75000000000000  Cu    
   0.25000000000000   0.75000000000000   0.75000000000000  Cu    
   0.50000000000000   0.00000000000000   0.00000000000000  Ti    
   0.00000000000000   0.50000000000000   0.00000000000000  Ti    
   0.00000000000000   0.00000000000000   0.50000000000000  Ti    
   0.50000000000000   0.50000000000000   0.50000000000000  Ti    
   0.00000000000000   0.00000000000000   0.00000000000000  Zn    
   0.50000000000000   0.50000000000000   0.00000000000000  Zn    
   0.50000000000000   0.00000000000000   0.50000000000000  Zn    
   0.00000000000000   0.50000000000000   0.50000000000000  Zn    
