Ru2Sc1Ta1_A2BC.001:cF16,Fm-3m  [CUB,CUB,  [CUB,CUB,cP16] (STD_CONV doi:10.1016/j.commatsci.2010.05.010)
1.000000
   6.35255099512068   0.00000000000000   0.00000000000000
   0.00000000000000   6.35255099512068   0.00000000000000
   0.00000000000000   0.00000000000000   6.35255099512068
Ru Sc Ta 
8 4 4 
Direct(16) [A8B4C4] 
   0.75000000000000   0.25000000000000   0.25000000000000  Ru    
   0.25000000000000   0.75000000000000   0.25000000000000  Ru    
   0.25000000000000   0.25000000000000   0.75000000000000  Ru    
   0.75000000000000   0.75000000000000   0.75000000000000  Ru    
   0.25000000000000   0.25000000000000   0.25000000000000  Ru    
   0.75000000000000   0.75000000000000   0.25000000000000  Ru    
   0.75000000000000   0.25000000000000   0.75000000000000  Ru    
   0.25000000000000   0.75000000000000   0.75000000000000  Ru    
   0.50000000000000   0.00000000000000  -0.00000000000000  Sc    
  -0.00000000000000   0.50000000000000  -0.00000000000000  Sc    
  -0.00000000000000   0.00000000000000   0.50000000000000  Sc    
   0.50000000000000   0.50000000000000   0.50000000000000  Sc    
   0.00000000000000   0.00000000000000   0.00000000000000  Ta    
   0.50000000000000   0.50000000000000   0.00000000000000  Ta    
   0.50000000000000   0.00000000000000   0.50000000000000  Ta    
   0.00000000000000   0.50000000000000   0.50000000000000  Ta    
