Pd2Mn1Sb1_A2BC.001:cF16,Fm-3m#225:FCC  [  [FCC,FCC,cF16] (STD_PRIM doi:10.1016/j.commatsci.2010.05.010)  [CUB,CUB,cP16] (STD_CONV doi:10.1016/j.commatsci.2010.05.010)
1.000000
   6.46654411556300   0.00000000000000   0.00000000000000
   0.00000000000000   6.46654411556300   0.00000000000000
   0.00000000000000   0.00000000000000   6.46654411556300
Pd Mn Sb 
8 4 4 
Direct(16) [A8B4C4] 
   0.75000000000000   0.25000000000000   0.25000000000000  Pd    
   0.25000000000000   0.75000000000000   0.25000000000000  Pd    
   0.25000000000000   0.25000000000000   0.75000000000000  Pd    
   0.75000000000000   0.75000000000000   0.75000000000000  Pd    
   0.25000000000000   0.25000000000000   0.25000000000000  Pd    
   0.75000000000000   0.75000000000000   0.25000000000000  Pd    
   0.75000000000000   0.25000000000000   0.75000000000000  Pd    
   0.25000000000000   0.75000000000000   0.75000000000000  Pd    
   0.50000000000000   0.00000000000000   0.00000000000000  Mn    
   0.00000000000000   0.50000000000000   0.00000000000000  Mn    
   0.00000000000000   0.00000000000000   0.50000000000000  Mn    
   0.50000000000000   0.50000000000000   0.50000000000000  Mn    
   0.00000000000000   0.00000000000000   0.00000000000000  Sb    
   0.50000000000000   0.50000000000000   0.00000000000000  Sb    
   0.50000000000000   0.00000000000000   0.50000000000000  Sb    
   0.00000000000000   0.50000000000000   0.50000000000000  Sb    
