Ti2Os1Tc1_A2BC.001:cF16,Fm-3m  [CUB,CUB,  [CUB,CUB,cP16] (STD_CONV doi:10.1016/j.commatsci.2010.05.010)
1.000000
   6.18638087925450   0.00000000000000   0.00000000000000
   0.00000000000000   6.18638087925450   0.00000000000000
   0.00000000000000   0.00000000000000   6.18638087925450
Ti Os Tc 
8 4 4 
Direct(16) [A8B4C4] 
   0.75000000000000   0.25000000000000   0.25000000000000  Ti    
   0.25000000000000   0.75000000000000   0.25000000000000  Ti    
   0.25000000000000   0.25000000000000   0.75000000000000  Ti    
   0.75000000000000   0.75000000000000   0.75000000000000  Ti    
   0.25000000000000   0.25000000000000   0.25000000000000  Ti    
   0.75000000000000   0.75000000000000   0.25000000000000  Ti    
   0.75000000000000   0.25000000000000   0.75000000000000  Ti    
   0.25000000000000   0.75000000000000   0.75000000000000  Ti    
   0.50000000000000   0.00000000000000  -0.00000000000000  Os    
   0.00000000000000   0.50000000000000  -0.00000000000000  Os    
   0.00000000000000   0.00000000000000   0.50000000000000  Os    
   0.50000000000000   0.50000000000000   0.50000000000000  Os    
   0.00000000000000   0.00000000000000   0.00000000000000  Tc    
   0.50000000000000   0.50000000000000   0.00000000000000  Tc    
   0.50000000000000   0.00000000000000   0.50000000000000  Tc    
   0.00000000000000   0.50000000000000   0.50000000000000  Tc    
