Pd2Cd1Y1_A2BC.001:cF16,Fm-3m  [CUB,CUB,c  [CUB,CUB,cP16] (STD_CONV doi:10.1016/j.commatsci.2010.05.010)
1.000000
   6.77724370552087   0.00000000000000   0.00000000000000
   0.00000000000000   6.77724370552087   0.00000000000000
   0.00000000000000   0.00000000000000   6.77724370552087
Pd Cd Y 
8 4 4 
Direct(16) [A8B4C4] 
   0.25000000000000   0.25000000000000   0.25000000000000  Pd    
   0.75000000000000   0.75000000000000   0.25000000000000  Pd    
   0.75000000000000   0.25000000000000   0.75000000000000  Pd    
   0.25000000000000   0.75000000000000   0.75000000000000  Pd    
   0.75000000000000   0.25000000000000   0.25000000000000  Pd    
   0.25000000000000   0.75000000000000   0.25000000000000  Pd    
   0.25000000000000   0.25000000000000   0.75000000000000  Pd    
   0.75000000000000   0.75000000000000   0.75000000000000  Pd    
   0.50000000000000   0.00000000000000  -0.00000000000000  Cd    
   0.00000000000000   0.50000000000000  -0.00000000000000  Cd    
   0.00000000000000   0.00000000000000   0.50000000000000  Cd    
   0.50000000000000   0.50000000000000   0.50000000000000  Cd    
   0.00000000000000   0.00000000000000   0.00000000000000  Y     
   0.50000000000000   0.50000000000000   0.00000000000000  Y     
   0.50000000000000   0.00000000000000   0.50000000000000  Y     
   0.00000000000000   0.50000000000000   0.50000000000000  Y     
