Au1Y1Hg1_ABC.001:cF12,F-43m  [FCC,FCC,cF  [FCC,FCC,cF12] (STD_PRIM doi:10.1016/j.commatsci.2010.05.010)  [CUB,CUB,cP12] (STD_CONV doi:10.1016/j.commatsci.2010.05.010)
1.000000
   6.76888880735825   0.00000000000000   0.00000000000000
   0.00000000000000   6.76888880735825   0.00000000000000
   0.00000000000000   0.00000000000000   6.76888880735825
Au Y Hg 
4 4 4 
Direct(12) [A4B4C4] 
   0.25000000000000   0.25000000000000   0.25000000000000  Au    
   0.75000000000000   0.75000000000000   0.25000000000000  Au    
   0.75000000000000   0.25000000000000   0.75000000000000  Au    
   0.25000000000000   0.75000000000000   0.75000000000000  Au    
   0.50000000000000   0.00000000000000   0.00000000000000  Y     
  -0.00000000000000   0.50000000000000   0.00000000000000  Y     
  -0.00000000000000   0.00000000000000   0.50000000000000  Y     
   0.50000000000000   0.50000000000000   0.50000000000000  Y     
   0.00000000000000   0.00000000000000   0.00000000000000  Hg    
   0.50000000000000   0.50000000000000   0.00000000000000  Hg    
   0.50000000000000   0.00000000000000   0.50000000000000  Hg    
   0.00000000000000   0.50000000000000   0.50000000000000  Hg    
