Pt1Al1Sc1_ABC.001:cF12,F-43m  [FCC,FCC,c  [FCC,FCC,cF12] (STD_PRIM doi:10.1016/j.commatsci.2010.05.010)  [CUB,CUB,cP12] (STD_CONV doi:10.1016/j.commatsci.2010.05.010)
1.000000
   6.22071082254618   0.00000000000000   0.00000000000000
   0.00000000000000   6.22071082254618   0.00000000000000
   0.00000000000000   0.00000000000000   6.22071082254618
Pt Al Sc 
4 4 4 
Direct(12) [A4B4C4] 
   0.75000000000000   0.25000000000000   0.25000000000000  Pt    
   0.25000000000000   0.75000000000000   0.25000000000000  Pt    
   0.25000000000000   0.25000000000000   0.75000000000000  Pt    
   0.75000000000000   0.75000000000000   0.75000000000000  Pt    
   0.50000000000000  -0.00000000000000   0.00000000000000  Al    
   0.00000000000000   0.50000000000000   0.00000000000000  Al    
   0.00000000000000  -0.00000000000000   0.50000000000000  Al    
   0.50000000000000   0.50000000000000   0.50000000000000  Al    
   0.00000000000000   0.00000000000000   0.00000000000000  Sc    
   0.50000000000000   0.50000000000000   0.00000000000000  Sc    
   0.50000000000000   0.00000000000000   0.50000000000000  Sc    
   0.00000000000000   0.50000000000000   0.50000000000000  Sc    
