Ge1Pt1Mn1_ABC.001:cF12,F-43m  [FCC,FCC,c  [FCC,FCC,cF12] (STD_PRIM doi:10.1016/j.commatsci.2010.05.010)  [CUB,CUB,cP12] (STD_CONV doi:10.1016/j.commatsci.2010.05.010)
1.000000
   5.85380457945189   0.00000000000000   0.00000000000000
   0.00000000000000   5.85380457945189   0.00000000000000
   0.00000000000000   0.00000000000000   5.85380457945189
Ge Pt Mn 
4 4 4 
Direct(12) [A4B4C4] 
   0.25000000000000   0.25000000000000   0.25000000000000  Ge    
   0.75000000000000   0.75000000000000   0.25000000000000  Ge    
   0.75000000000000   0.25000000000000   0.75000000000000  Ge    
   0.25000000000000   0.75000000000000   0.75000000000000  Ge    
   0.50000000000000  -0.00000000000000   0.00000000000000  Pt    
  -0.00000000000000   0.50000000000000   0.00000000000000  Pt    
  -0.00000000000000  -0.00000000000000   0.50000000000000  Pt    
   0.50000000000000   0.50000000000000   0.50000000000000  Pt    
   0.00000000000000   0.00000000000000   0.00000000000000  Mn    
   0.50000000000000   0.50000000000000   0.00000000000000  Mn    
   0.50000000000000   0.00000000000000   0.50000000000000  Mn    
   0.00000000000000   0.50000000000000   0.50000000000000  Mn    
