Ni1Ge1V1_ABC.001:cF12,F-43m  [FCC,FCC,cF  [FCC,FCC,cF12] (STD_PRIM doi:10.1016/j.commatsci.2010.05.010)  [CUB,CUB,cP12] (STD_CONV doi:10.1016/j.commatsci.2010.05.010)
1.000000
   5.56958486257621   0.00000000000000   0.00000000000000
   0.00000000000000   5.56958486257621   0.00000000000000
   0.00000000000000   0.00000000000000   5.56958486257621
Ni Ge V 
4 4 4 
Direct(12) [A4B4C4] 
   0.75000000000000   0.25000000000000   0.25000000000000  Ni    
   0.25000000000000   0.75000000000000   0.25000000000000  Ni    
   0.25000000000000   0.25000000000000   0.75000000000000  Ni    
   0.75000000000000   0.75000000000000   0.75000000000000  Ni    
   0.50000000000000   0.00000000000000   0.00000000000000  Ge    
  -0.00000000000000   0.50000000000000   0.00000000000000  Ge    
  -0.00000000000000   0.00000000000000   0.50000000000000  Ge    
   0.50000000000000   0.50000000000000   0.50000000000000  Ge    
  -0.00000000000000   0.00000000000000   0.00000000000000  V     
   0.50000000000000   0.50000000000000   0.00000000000000  V     
   0.50000000000000   0.00000000000000   0.50000000000000  V     
  -0.00000000000000   0.50000000000000   0.50000000000000  V     
