Tl1Sr1Ca1_ABC.001:cF12,F-43m  [FCC,FCC,c  [FCC,FCC,cF12] (STD_PRIM doi:10.1016/j.commatsci.2010.05.010)  [CUB,CUB,cP12] (STD_CONV doi:10.1016/j.commatsci.2010.05.010)
1.000000
   7.88892444697477   0.00000000000000   0.00000000000000
   0.00000000000000   7.88892444697477   0.00000000000000
   0.00000000000000   0.00000000000000   7.88892444697477
Tl Sr Ca 
4 4 4 
Direct(12) [A4B4C4] 
   0.75000000000000   0.25000000000000   0.25000000000000  Tl    
   0.25000000000000   0.75000000000000   0.25000000000000  Tl    
   0.25000000000000   0.25000000000000   0.75000000000000  Tl    
   0.75000000000000   0.75000000000000   0.75000000000000  Tl    
   0.50000000000000  -0.00000000000000   0.00000000000000  Sr    
  -0.00000000000000   0.50000000000000   0.00000000000000  Sr    
  -0.00000000000000  -0.00000000000000   0.50000000000000  Sr    
   0.50000000000000   0.50000000000000   0.50000000000000  Sr    
   0.00000000000000   0.00000000000000   0.00000000000000  Ca    
   0.50000000000000   0.50000000000000   0.00000000000000  Ca    
   0.50000000000000   0.00000000000000   0.50000000000000  Ca    
   0.00000000000000   0.50000000000000   0.50000000000000  Ca    
