Pt1Ga1Zr1_ABC.001:cF12,F-43m  [FCC,FCC,c  [FCC,FCC,cF12] (STD_PRIM doi:10.1016/j.commatsci.2010.05.010)  [CUB,CUB,cP12] (STD_CONV doi:10.1016/j.commatsci.2010.05.010)
1.000000
   6.23745706033280   0.00000000000000   0.00000000000000
   0.00000000000000   6.23745706033280   0.00000000000000
   0.00000000000000   0.00000000000000   6.23745706033280
Pt Ga Zr 
4 4 4 
Direct(12) [A4B4C4] 
   0.25000000000000   0.25000000000000   0.25000000000000  Pt    
   0.75000000000000   0.75000000000000   0.25000000000000  Pt    
   0.75000000000000   0.25000000000000   0.75000000000000  Pt    
   0.25000000000000   0.75000000000000   0.75000000000000  Pt    
   0.50000000000000  -0.00000000000000   0.00000000000000  Ga    
  -0.00000000000000   0.50000000000000   0.00000000000000  Ga    
  -0.00000000000000  -0.00000000000000   0.50000000000000  Ga    
   0.50000000000000   0.50000000000000   0.50000000000000  Ga    
   0.00000000000000   0.00000000000000   0.00000000000000  Zr    
   0.50000000000000   0.50000000000000   0.00000000000000  Zr    
   0.50000000000000   0.00000000000000   0.50000000000000  Zr    
   0.00000000000000   0.50000000000000   0.50000000000000  Zr    
