Ir1V1Si1_ABC.001:cF12,F-43m  [FCC,FCC,cF  [FCC,FCC,cF12] (STD_PRIM doi:10.1016/j.commatsci.2010.05.010)  [CUB,CUB,cP12] (STD_CONV doi:10.1016/j.commatsci.2010.05.010)
1.000000
   5.72168136412080   0.00000000000000   0.00000000000000
   0.00000000000000   5.72168136412080   0.00000000000000
   0.00000000000000   0.00000000000000   5.72168136412080
Ir V Si 
4 4 4 
Direct(12) [A4B4C4] 
   0.75000000000000   0.25000000000000   0.25000000000000  Ir    
   0.25000000000000   0.75000000000000   0.25000000000000  Ir    
   0.25000000000000   0.25000000000000   0.75000000000000  Ir    
   0.75000000000000   0.75000000000000   0.75000000000000  Ir    
   0.50000000000000  -0.00000000000000   0.00000000000000  V     
  -0.00000000000000   0.50000000000000   0.00000000000000  V     
  -0.00000000000000  -0.00000000000000   0.50000000000000  V     
   0.50000000000000   0.50000000000000   0.50000000000000  V     
   0.00000000000000   0.00000000000000   0.00000000000000  Si    
   0.50000000000000   0.50000000000000   0.00000000000000  Si    
   0.50000000000000   0.00000000000000   0.50000000000000  Si    
   0.00000000000000   0.50000000000000   0.50000000000000  Si    
