Mn2Fe1Al1_A2BC.002:cF16,F-43m  [FCC,FCC,  [FCC,FCC,cF16] (STD_PRIM doi:10.1016/j.commatsci.2010.05.010)  [CUB,CUB,cP16] (STD_CONV doi:10.1016/j.commatsci.2010.05.010)
1.000000
   5.74808109723934   0.00000000000000   0.00000000000000
   0.00000000000000   5.74808109723934   0.00000000000000
   0.00000000000000   0.00000000000000   5.74808109723934
Mn Fe Al 
8 4 4 
Direct(16) [A8B4C4] 
   0.25000000000000   0.25000000000000   0.25000000000000  Mn    
   0.75000000000000   0.75000000000000   0.25000000000000  Mn    
   0.75000000000000   0.25000000000000   0.75000000000000  Mn    
   0.25000000000000   0.75000000000000   0.75000000000000  Mn    
   0.50000000000000   0.00000000000000   0.00000000000000  Mn    
   0.00000000000000   0.50000000000000   0.00000000000000  Mn    
   0.00000000000000   0.00000000000000   0.50000000000000  Mn    
   0.50000000000000   0.50000000000000   0.50000000000000  Mn    
   0.75000000000000   0.25000000000000   0.25000000000000  Fe    
   0.25000000000000   0.75000000000000   0.25000000000000  Fe    
   0.25000000000000   0.25000000000000   0.75000000000000  Fe    
   0.75000000000000   0.75000000000000   0.75000000000000  Fe    
   0.00000000000000   0.00000000000000   0.00000000000000  Al    
   0.50000000000000   0.50000000000000   0.00000000000000  Al    
   0.50000000000000   0.00000000000000   0.50000000000000  Al    
   0.00000000000000   0.50000000000000   0.50000000000000  Al    
