Fe2Pt1Ga1_A2BC.002:cF16,F-43m  [FCC,FCC,  [FCC,FCC,cF16] (STD_PRIM doi:10.1016/j.commatsci.2010.05.010)  [CUB,CUB,cP16] (STD_CONV doi:10.1016/j.commatsci.2010.05.010)
1.000000
   5.90089846463447   0.00000000000000   0.00000000000000
   0.00000000000000   5.90089846463447   0.00000000000000
   0.00000000000000   0.00000000000000   5.90089846463447
Fe Pt Ga 
8 4 4 
Direct(16) [A8B4C4] 
   0.75000000000000   0.25000000000000   0.25000000000000  Fe    
   0.25000000000000   0.75000000000000   0.25000000000000  Fe    
   0.25000000000000   0.25000000000000   0.75000000000000  Fe    
   0.75000000000000   0.75000000000000   0.75000000000000  Fe    
   0.50000000000000  -0.00000000000000  -0.00000000000000  Fe    
   0.00000000000000   0.50000000000000  -0.00000000000000  Fe    
   0.00000000000000  -0.00000000000000   0.50000000000000  Fe    
   0.50000000000000   0.50000000000000   0.50000000000000  Fe    
   0.25000000000000   0.25000000000000   0.25000000000000  Pt    
   0.75000000000000   0.75000000000000   0.25000000000000  Pt    
   0.75000000000000   0.25000000000000   0.75000000000000  Pt    
   0.25000000000000   0.75000000000000   0.75000000000000  Pt    
   0.00000000000000   0.00000000000000   0.00000000000000  Ga    
   0.50000000000000   0.50000000000000   0.00000000000000  Ga    
   0.50000000000000   0.00000000000000   0.50000000000000  Ga    
   0.00000000000000   0.50000000000000   0.50000000000000  Ga    
