Mn2Ir1Ge1_A2BC.002:cF16,F-43m  [CUB,CUB,  [FCC,FCC,cF16] (STD_PRIM doi:10.1016/j.commatsci.2010.05.010)  [CUB,CUB,cP16] (STD_CONV doi:10.1016/j.commatsci.2010.05.010)
1.000000
   5.93994181142017   0.00000000000000   0.00000000000000
   0.00000000000000   5.93994181142017   0.00000000000000
   0.00000000000000   0.00000000000000   5.93994181142017
Mn Ir Ge 
8 4 4 
Direct(16) [A8B4C4] 
   0.25000000000000   0.25000000000000   0.25000000000000  Mn    
   0.75000000000000   0.75000000000000   0.25000000000000  Mn    
   0.75000000000000   0.25000000000000   0.75000000000000  Mn    
   0.25000000000000   0.75000000000000   0.75000000000000  Mn    
   0.50000000000000   0.00000000000000   0.00000000000000  Mn    
  -0.00000000000000   0.50000000000000   0.00000000000000  Mn    
  -0.00000000000000   0.00000000000000   0.50000000000000  Mn    
   0.50000000000000   0.50000000000000   0.50000000000000  Mn    
   0.75000000000000   0.25000000000000   0.25000000000000  Ir    
   0.25000000000000   0.75000000000000   0.25000000000000  Ir    
   0.25000000000000   0.25000000000000   0.75000000000000  Ir    
   0.75000000000000   0.75000000000000   0.75000000000000  Ir    
   0.00000000000000   0.00000000000000   0.00000000000000  Ge    
   0.50000000000000   0.50000000000000   0.00000000000000  Ge    
   0.50000000000000   0.00000000000000   0.50000000000000  Ge    
   0.00000000000000   0.50000000000000   0.50000000000000  Ge    
