Mn2Ru1Si1_A2BC.002:cF16,F-43m  [CUB,CUB,  [CUB,CUB,cP16] (STD_CONV doi:10.1016/j.commatsci.2010.05.010)
1.000000
   5.74864505931271   0.00000000000000   0.00000000000000
   0.00000000000000   5.74864505931271   0.00000000000000
   0.00000000000000   0.00000000000000   5.74864505931271
Mn Ru Si 
8 4 4 
Direct(16) [A8B4C4] 
   0.75000000000000   0.25000000000000   0.25000000000000  Mn    
   0.25000000000000   0.75000000000000   0.25000000000000  Mn    
   0.25000000000000   0.25000000000000   0.75000000000000  Mn    
   0.75000000000000   0.75000000000000   0.75000000000000  Mn    
   0.50000000000000   0.00000000000000   0.00000000000000  Mn    
   0.00000000000000   0.50000000000000   0.00000000000000  Mn    
   0.00000000000000   0.00000000000000   0.50000000000000  Mn    
   0.50000000000000   0.50000000000000   0.50000000000000  Mn    
   0.25000000000000   0.25000000000000   0.25000000000000  Ru    
   0.75000000000000   0.75000000000000   0.25000000000000  Ru    
   0.75000000000000   0.25000000000000   0.75000000000000  Ru    
   0.25000000000000   0.75000000000000   0.75000000000000  Ru    
   0.00000000000000   0.00000000000000   0.00000000000000  Si    
   0.50000000000000   0.50000000000000   0.00000000000000  Si    
   0.50000000000000   0.00000000000000   0.50000000000000  Si    
   0.00000000000000   0.50000000000000   0.50000000000000  Si    
