Mn2Ru1Sn1_A2BC.002:cF16,F-43m  [CUB,CUB,  [FCC,FCC,cF16] (STD_PRIM doi:10.1016/j.commatsci.2010.05.010)  [CUB,CUB,cP16] (STD_CONV doi:10.1016/j.commatsci.2010.05.010)
1.000000
   6.19506844573462   0.00000000000000   0.00000000000000
   0.00000000000000   6.19506844573462   0.00000000000000
   0.00000000000000   0.00000000000000   6.19506844573462
Mn Ru Sn 
8 4 4 
Direct(16) [A8B4C4] 
   0.75000000000000   0.25000000000000   0.25000000000000  Mn    
   0.25000000000000   0.75000000000000   0.25000000000000  Mn    
   0.25000000000000   0.25000000000000   0.75000000000000  Mn    
   0.75000000000000   0.75000000000000   0.75000000000000  Mn    
   0.50000000000000   0.00000000000000   0.00000000000000  Mn    
   0.00000000000000   0.50000000000000   0.00000000000000  Mn    
   0.00000000000000   0.00000000000000   0.50000000000000  Mn    
   0.50000000000000   0.50000000000000   0.50000000000000  Mn    
   0.25000000000000   0.25000000000000   0.25000000000000  Ru    
   0.75000000000000   0.75000000000000   0.25000000000000  Ru    
   0.75000000000000   0.25000000000000   0.75000000000000  Ru    
   0.25000000000000   0.75000000000000   0.75000000000000  Ru    
   0.00000000000000   0.00000000000000   0.00000000000000  Sn    
   0.50000000000000   0.50000000000000   0.00000000000000  Sn    
   0.50000000000000   0.00000000000000   0.50000000000000  Sn    
   0.00000000000000   0.50000000000000   0.50000000000000  Sn    
